SYSTEM = G21_relax_metal_defect_auto_005
GGA = PE
ENCUT = 520
EDIFF = 1e-06
EDIFFG = -0.05
ISPIN = 1
ISMEAR = 1
SIGMA = 0.2
LREAL = Auto
NELM = 10
NSW = 5
IBRION = 2
ISIF = 2
