wse2_layered_chalcogenide_relax
1.0
3.3200000000 0.0000000000 0.0000000000
-1.6600000000 2.8752043406 0.0000000000
0.0300000000 0.0000000000 13.9000000000
W Se
1 2
Direct
0.0000000000 0.0000000000 0.5000000000
0.3318333333 0.6651666667 0.4185000000
0.6666666667 0.3348333333 0.5785000000
