G24_relax_scf_unconverged_holdout_bulk_002
1.0
2.9997000000 0.0000000000 0.0000000000
0.0000000000 2.9997000000 0.0000000000
0.0000000000 0.0000000000 2.9997000000
V
2
Direct
0.0000000000 0.0000000000 0.0000000000
0.5000000000 0.5000000000 0.5000000000
