zns_zincblende_shifted_static
1.0
5.4500000000 0.0000000000 0.0000000000
0.0000000000 5.4500000000 0.0000000000
0.0000000000 0.0000000000 5.4500000000
Zn S
4 4
Direct
0.0000000000 0.0000000000 0.0000000000
0.0000000000 0.5000000000 0.5000000000
0.5000000000 0.0000000000 0.5000000000
0.5000000000 0.5000000000 0.0000000000
0.2512000000 0.2512000000 0.2512000000
0.2488000000 0.7500000000 0.7512000000
0.7500000000 0.2488000000 0.7512000000
0.7512000000 0.7512000000 0.2512000000
