gan_wurtzite_static
1.0
3.1900000000 0.0000000000 0.0000000000
-1.5950000000 2.7626210381 0.0000000000
0.0000000000 0.0000000000 5.1900000000
Ga N
2 2
Direct
0.0000000000 0.0000000000 0.0000000000
0.6666666667 0.3333333333 0.5000000000
0.0000000000 0.0000000000 0.3750000000
0.6666666667 0.3333333333 0.8750000000
