SYSTEM = cos_rocksalt_static
GGA = PE
PREC = Normal
ENCUT = 430
EDIFF = 1e-05
ISPIN = 2
MAGMOM = 2 2 2 2 0 0 0 0
ISMEAR = 1
SIGMA = 0.15
NELM = 60
NSW = 0
IBRION = -1
ISIF = 2
IMIX = 4
