cos_rocksalt_static
1.0
4.9500000000 0.0000000000 0.0000000000
0.0120000000 4.9500000000 0.0000000000
0.0000000000 0.0000000000 4.9500000000
Co S
4 4
Direct
0.0000000000 0.0000000000 0.0000000000
0.0010000000 0.4990000000 0.5000000000
0.4990000000 0.0010000000 0.5000000000
0.5000000000 0.5000000000 0.0000000000
0.5010000000 0.5010000000 0.5010000000
0.4990000000 0.0000000000 0.0010000000
0.0000000000 0.4990000000 0.0010000000
0.0010000000 0.0010000000 0.5010000000
