Y10_static_na2o_triclinic_001
1.0
4.1000000000 0.1000000000 0.0500000000
0.2000000000 4.3500000000 0.1400000000
0.0800000000 0.2200000000 4.0000000000
Na O
2 1
Direct
0.1600000000 0.1800000000 0.2100000000
0.6400000000 0.6100000000 0.5800000000
0.3900000000 0.4200000000 0.3700000000
