mgs_wurtzite_static
1.0
3.9500000000 0.0000000000 0.0000000000
-1.9750000000 3.4208003449 0.0000000000
0.0000000000 0.0000000000 6.4500000000
Mg S
2 2
Direct
0.0000000000 0.0000000000 0.0000000000
0.6676666667 0.3323333333 0.5000000000
0.9990000000 0.9990000000 0.3740000000
0.6666666667 0.3343333333 0.8740000000
