gap_wurtzite_relax
1.0
3.8400000000 0.0000000000 0.0000000000
-1.9200000000 3.3255375505 0.0000000000
0.0000000000 0.0000000000 6.2800000000
Ga P
2 2
Direct
0.0000000000 0.0000000000 0.0000000000
0.6676666667 0.3323333333 0.5000000000
0.9990000000 0.9990000000 0.3740000000
0.6666666667 0.3343333333 0.8740000000
