G05_static_holdout_semiconductor_bulk_002
1.0
5.8113000000 0.0000000000 0.0000000000
0.0000000000 5.8113000000 0.0000000000
0.0000000000 0.0000000000 5.8113000000
In P
4 4
Direct
0.0000000000 0.0000000000 0.0000000000
0.0000000000 0.5000000000 0.5000000000
0.5000000000 0.0000000000 0.5000000000
0.5000000000 0.5000000000 0.0000000000
0.2500000000 0.2500000000 0.2500000000
0.2500000000 0.7500000000 0.7500000000
0.7500000000 0.2500000000 0.7500000000
0.7500000000 0.7500000000 0.2500000000
