zns_wurtzite_relax
1.0
3.8582000000 0.0000000000 0.0000000000
-1.9291000000 3.3412992129 0.0000000000
0.0200000000 0.0000000000 6.2600000000
Zn S
2 2
Direct
0.0000000000 0.0000000000 0.0000000000
0.6676666667 0.3323333333 0.5000000000
0.9985000000 0.9985000000 0.3735000000
0.6666666667 0.3348333333 0.8735000000
