SYSTEM = Y109_static_sige_alloy_fast_default_nelm_001
GGA = PE
PREC = Normal
ENCUT = 400
EDIFF = 1e-05
NELM = 60
ISPIN = 1
ISMEAR = 0
SIGMA = 0.05
NSW = 0
IBRION = -1
ISIF = 2
IMIX = 4
ALGO = Fast
ISYM = 0
