Y109_static_sige_alloy_fast_default_nelm_001
1.0
5.5500000000 0.0000000000 0.0000000000
0.0400000000 5.5500000000 0.0000000000
0.0000000000 0.0200000000 5.5500000000
Si Ge
4 4
Direct
0.0000000000 0.0000000000 0.0000000000
0.0000000000 0.5000000000 0.5000000000
0.5000000000 0.0000000000 0.5000000000
0.5000000000 0.5000000000 0.0000000000
0.2520000000 0.2470000000 0.2510000000
0.2480000000 0.7530000000 0.7490000000
0.7520000000 0.2470000000 0.7510000000
0.7480000000 0.7530000000 0.2490000000
