sc_hcp_metal_static
1.0
3.3100000000 0.0000000000 0.0000000000
-1.6550000000 2.8665440865 0.0000000000
0.0000000000 0.0000000000 5.3622000000
Sc
2
Direct
0.0000000000 0.0000000000 0.0000000000
0.6676666667 0.3323333333 0.5000000000
