G02_static_late_transition_bulk_mp_001
1.0
2.6829000000 0.0000000000 0.0000000000
0.0000000000 2.6829000000 0.0000000000
0.0000000000 0.0000000000 2.6829000000
Ru
4
Direct
0.0000000000 0.0000000000 0.0000000000
0.0000000000 0.5000000000 0.5000000000
0.5000000000 0.0000000000 0.5000000000
0.5000000000 0.5000000000 0.0000000000
