inn_zincblende_relax
1.0
5.0000000000 0.0000000000 0.0000000000
0.0000000000 5.0000000000 0.0000000000
0.0000000000 0.0000000000 5.0000000000
In N
4 4
Direct
0.0000000000 0.0000000000 0.0000000000
0.0000000000 0.5000000000 0.5000000000
0.5000000000 0.0000000000 0.5000000000
0.5000000000 0.5000000000 0.0000000000
0.2485000000 0.2485000000 0.2485000000
0.2500000000 0.7515000000 0.7485000000
0.7515000000 0.2500000000 0.7485000000
0.7485000000 0.7485000000 0.2485000000
