sctio3_perovskite_like_relax
1.0
3.8900000000 0.0000000000 0.0000000000
0.0000000000 3.8900000000 0.0000000000
0.0000000000 0.0000000000 3.8900000000
Sc Ti O
1 1 3
Direct
0.0000000000 0.0000000000 0.0000000000
0.5000000000 0.5000000000 0.5000000000
0.5000000000 0.5000000000 0.0000000000
0.5000000000 0.0000000000 0.5000000000
0.0000000000 0.5000000000 0.5000000000
