G05_static_holdout_semiconductor_bulk_001
1.0
6.4152000000 0.0000000000 0.0000000000
0.0000000000 6.4152000000 0.0000000000
0.0000000000 0.0000000000 6.4152000000
Cd Te
4 4
Direct
0.0000000000 0.0000000000 0.0000000000
0.0000000000 0.5000000000 0.5000000000
0.5000000000 0.0000000000 0.5000000000
0.5000000000 0.5000000000 0.0000000000
0.2500000000 0.2500000000 0.2500000000
0.2500000000 0.7500000000 0.7500000000
0.7500000000 0.2500000000 0.7500000000
0.7500000000 0.7500000000 0.2500000000
