tas2_layered_static
1.0
3.3600000000 0.0000000000 0.0000000000
-1.6800000000 2.9098453567 0.0000000000
0.0150000000 0.0000000000 12.2000000000
Ta S
1 2
Direct
0.0000000000 0.0000000000 0.5000000000
0.3343333333 0.6676666667 0.4210000000
0.6656666667 0.3333333333 0.5810000000
