gap_zincblende_shear_static
1.0
5.4800000000 0.0000000000 0.0000000000
0.0000000000 5.4800000000 0.0000000000
0.0000000000 0.0000000000 5.4800000000
Ga P
4 4
Direct
0.0000000000 0.0000000000 0.0000000000
0.0000000000 0.5000000000 0.5000000000
0.5000000000 0.0000000000 0.5000000000
0.5000000000 0.5000000000 0.0000000000
0.2500000000 0.2500000000 0.2500000000
0.2512000000 0.7488000000 0.7500000000
0.7488000000 0.2512000000 0.7500000000
0.7500000000 0.7500000000 0.2500000000
