G04_static_new_magnetic_bulk_003
1.0
4.0986000000 0.0000000000 0.0000000000
0.0000000000 4.0986000000 0.0000000000
0.0000000000 0.0000000000 4.0986000000
Cr N
4 4
Direct
0.0000000000 0.0000000000 0.0000000000
0.0000000000 0.5000000000 0.5000000000
0.5000000000 0.0000000000 0.5000000000
0.5000000000 0.5000000000 0.0000000000
0.5000000000 0.5000000000 0.5000000000
0.5000000000 0.0000000000 0.0000000000
0.0000000000 0.5000000000 0.0000000000
0.0000000000 0.0000000000 0.5000000000
