gap_zincblende_static
1.0
5.4500000000 0.0000000000 0.0000000000
0.0000000000 5.4500000000 0.0000000000
0.0000000000 0.0000000000 5.4500000000
Ga P
4 4
Direct
0.0000000000 0.0000000000 0.0000000000
0.0000000000 0.5000000000 0.5000000000
0.5000000000 0.0000000000 0.5000000000
0.5000000000 0.5000000000 0.0000000000
0.2500000000 0.2500000000 0.2500000000
0.2515000000 0.7485000000 0.7500000000
0.7485000000 0.2515000000 0.7500000000
0.7500000000 0.7500000000 0.2500000000
