sr_fcc_metal_static
1.0
6.0800000000 0.0000000000 0.0000000000
0.0000000000 6.0800000000 0.0000000000
0.0000000000 0.0000000000 6.0800000000
Sr
4
Direct
0.0010000000 0.0010000000 0.0010000000
0.9990000000 0.5000000000 0.5010000000
0.5000000000 0.9990000000 0.5010000000
0.5010000000 0.5010000000 0.0010000000
