sic_wurtzite_shear_static
1.0
3.1000000000 0.0000000000 0.0000000000
-1.5500000000 2.6846787517 0.0000000000
0.0000000000 0.0000000000 5.0800000000
Si C
2 2
Direct
0.0000000000 0.0000000000 0.0000000000
0.6676666667 0.3323333333 0.5000000000
0.9990000000 0.9990000000 0.3740000000
0.6666666667 0.3343333333 0.8740000000
