basno3_perovskite_relax
1.0
4.1200000000 0.0000000000 0.0000000000
0.0000000000 4.1200000000 0.0000000000
0.0000000000 0.0000000000 4.1200000000
Ba Sn O
1 1 3
Direct
0.0000000000 0.0000000000 0.0000000000
0.5000000000 0.5000000000 0.5000000000
0.5000000000 0.5000000000 0.0000000000
0.5000000000 0.0000000000 0.5000000000
0.0000000000 0.5000000000 0.5000000000
