G20_relax_compound_defect_auto_001
1.0
12.8304000000 0.0000000000 0.0000000000
0.0000000000 12.8304000000 0.0000000000
0.0000000000 0.0000000000 6.4152000000
Cd Te
15 16
Direct
0.0000000000 0.0000000000 0.0000000000
0.0000000000 0.2500000000 0.5000000000
0.2500000000 0.0000000000 0.5000000000
0.2500000000 0.2500000000 0.0000000000
0.0000000000 0.5000000000 0.0000000000
0.0000000000 0.7500000000 0.5000000000
0.2500000000 0.5000000000 0.5000000000
0.2500000000 0.7500000000 0.0000000000
0.5000000000 0.2500000000 0.5000000000
0.7500000000 0.0000000000 0.5000000000
0.7500000000 0.2500000000 0.0000000000
0.5000000000 0.5000000000 0.0000000000
0.5000000000 0.7500000000 0.5000000000
0.7500000000 0.5000000000 0.5000000000
0.7500000000 0.7500000000 0.0000000000
0.1250000000 0.1250000000 0.2500000000
0.1250000000 0.3750000000 0.7500000000
0.3750000000 0.1250000000 0.7500000000
0.3750000000 0.3750000000 0.2500000000
0.1250000000 0.6250000000 0.2500000000
0.1250000000 0.8750000000 0.7500000000
0.3750000000 0.6250000000 0.7500000000
0.3750000000 0.8750000000 0.2500000000
0.6250000000 0.1250000000 0.2500000000
0.6250000000 0.3750000000 0.7500000000
0.8750000000 0.1250000000 0.7500000000
0.8750000000 0.3750000000 0.2500000000
0.6250000000 0.6250000000 0.2500000000
0.6250000000 0.8750000000 0.7500000000
0.8750000000 0.6250000000 0.7500000000
0.8750000000 0.8750000000 0.2500000000
