cdte_rocksalt_static
1.0
6.4000000000 0.0000000000 0.0000000000
0.0000000000 6.4000000000 0.0000000000
0.0000000000 0.0000000000 6.4000000000
Cd Te
4 4
Direct
0.0000000000 0.0000000000 0.0000000000
0.0010000000 0.4990000000 0.5000000000
0.4990000000 0.0010000000 0.5000000000
0.5000000000 0.5000000000 0.0000000000
0.5010000000 0.5010000000 0.5010000000
0.4990000000 0.0000000000 0.0010000000
0.0000000000 0.4990000000 0.0010000000
0.0010000000 0.0010000000 0.5010000000
