mo_hcp_like_metal_relax
1.0
2.7500000000 0.0000000000 0.0000000000
-1.3750000000 2.3815698604 0.0000000000
0.0100000000 0.0000000000 4.4550000000
Mo
2
Direct
0.9990000000 0.9990000000 0.9990000000
0.6666666667 0.3343333333 0.4990000000
