Y126_relax_graphite_shear_isif3_lreal_true_001
1.0
2.4600000000 0.0000000000 0.0000000000
-1.1000000000 2.1304220000 0.0000000000
0.2600000000 0.0800000000 13.5000000000
C
4
Direct
0.0060000000 0.9970000000 0.2520000000
0.3273333333 0.6696666667 0.2480000000
0.0060000000 0.9970000000 0.7520000000
0.6606666667 0.3363333333 0.7480000000
