hf_hcp_metal_static
1.0
3.1900000000 0.0000000000 0.0000000000
-1.5950000000 2.7626210381 0.0000000000
0.0000000000 0.0000000000 5.1678000000
Hf
2
Direct
0.0010000000 0.0010000000 0.0010000000
0.6656666667 0.3333333333 0.5010000000
