Y108_static_mncl2_chain_spin_lreal_true_001
1.0
14.0000000000 0.0000000000 0.0000000000
0.5000000000 13.6000000000 0.0000000000
0.2000000000 0.1000000000 13.8000000000
Mn Cl
2 4
Direct
0.4600000000 0.5000000000 0.5000000000
0.5400000000 0.5000000000 0.5000000000
0.3800000000 0.5000000000 0.5000000000
0.6200000000 0.5000000000 0.5000000000
0.5000000000 0.5800000000 0.5000000000
0.5000000000 0.4200000000 0.5000000000
