bes_wurtzite_static
1.0
3.3500000000 0.0000000000 0.0000000000
-1.6750000000 2.9011851027 0.0000000000
0.0150000000 0.0000000000 5.4500000000
Be S
2 2
Direct
0.0000000000 0.0000000000 0.0000000000
0.6676666667 0.3323333333 0.5000000000
0.9990000000 0.9990000000 0.3740000000
0.6666666667 0.3343333333 0.8740000000
