G24_relax_scf_unconverged_holdout_bulk_005
1.0
3.7625940000 0.0000000000 0.0000000000
0.0000000000 3.7625940000 0.0000000000
0.0000000000 0.0000000000 2.4080601600
V O
2 4
Direct
0.0000000000 0.0000000000 0.0000000000
0.5000000000 0.5000000000 0.5000000000
0.3050000000 0.3050000000 0.0000000000
0.6950000000 0.6950000000 0.0000000000
0.8050000000 0.1950000000 0.5000000000
0.1950000000 0.8050000000 0.5000000000
