G02_static_late_transition_bulk_mp_002
1.0
3.7620000000 0.0000000000 0.0000000000
0.0000000000 3.7620000000 0.0000000000
0.0000000000 0.0000000000 3.7620000000
Rh
4
Direct
0.0000000000 0.0000000000 0.0000000000
0.0000000000 0.5000000000 0.5000000000
0.5000000000 0.0000000000 0.5000000000
0.5000000000 0.5000000000 0.0000000000
