zno_defect_ovac_small_relax
1.0
4.3500000000 0.0000000000 0.0000000000
0.0000000000 4.3500000000 0.0000000000
0.0000000000 0.0000000000 4.3500000000
Zn O
4 3
Direct
0.9970000000 0.9970000000 0.9970000000
0.0000000000 0.5030000000 0.4970000000
0.5030000000 0.0000000000 0.4970000000
0.4970000000 0.4970000000 0.9970000000
0.4970000000 0.4970000000 0.4970000000
0.5000000000 0.0030000000 0.9970000000
0.0030000000 0.5000000000 0.9970000000
