bawo3_perovskite_relax
1.0
4.0800000000 0.0000000000 0.0000000000
0.0100000000 4.0800000000 0.0000000000
0.0000000000 0.0000000000 4.0800000000
Ba W O
1 1 3
Direct
0.0000000000 0.0000000000 0.0000000000
0.5000000000 0.5000000000 0.5000000000
0.4990000000 0.4990000000 0.9990000000
0.5000000000 0.0010000000 0.4990000000
0.0010000000 0.5000000000 0.4990000000
