mgse_rocksalt_static
1.0
5.4500000000 0.0000000000 0.0000000000
0.0000000000 5.4500000000 0.0000000000
0.0000000000 0.0000000000 5.4500000000
Mg Se
4 4
Direct
0.0010000000 0.0010000000 0.0010000000
0.9990000000 0.5000000000 0.5010000000
0.5000000000 0.9990000000 0.5010000000
0.5010000000 0.5010000000 0.0010000000
0.4990000000 0.4990000000 0.4990000000
0.5000000000 0.0010000000 0.9990000000
0.0010000000 0.5000000000 0.9990000000
0.9990000000 0.9990000000 0.4990000000
