mos2_supercell_3x2x1_relax
1.0
9.5400000000 0.0000000000 0.0000000000
-3.1800000000 5.5079215681 0.0000000000
0.0000000000 0.0000000000 12.3000000000
Mo S
6 12
Direct
0.9992000000 0.9992000000 0.4992000000
0.0000000000 0.5008000000 0.4992000000
0.3341333333 0.0000000000 0.4992000000
0.3325333333 0.4992000000 0.4992000000
0.6666666667 0.0008000000 0.4992000000
0.6674666667 0.5000000000 0.4992000000
0.1103111111 0.3325333333 0.4192000000
0.2222222222 0.1674666667 0.5792000000
0.1119111111 0.8333333333 0.4192000000
0.2214222222 0.6658666667 0.5792000000
0.4444444444 0.3341333333 0.4192000000
0.5563555556 0.1666666667 0.5792000000
0.4436444444 0.8325333333 0.4192000000
0.5555555556 0.6674666667 0.5792000000
0.7785777778 0.3333333333 0.4192000000
0.8880888889 0.1658666667 0.5792000000
0.7777777778 0.8341333333 0.4192000000
0.8896888889 0.6666666667 0.5792000000
