Y42_relax_hbn_monolayer_isif2_001
1.0
2.5040000000 0.0000000000 0.0000000000
-1.2520000000 2.1685276139 0.0000000000
0.0000000000 0.0000000000 18.0000000000
B N
1 1
Direct
0.0100000000 0.0000000000 0.5000000000
0.3350000000 0.6650000000 0.5020000000
