mgte_wurtzite_relax
1.0
4.5652000000 0.0000000000 0.0000000000
-2.2826000000 3.9535791734 0.0000000000
0.0200000000 0.0000000000 7.3600000000
Mg Te
2 2
Direct
0.0000000000 0.0000000000 0.0000000000
0.6676666667 0.3323333333 0.5000000000
0.9985000000 0.9985000000 0.3735000000
0.6666666667 0.3348333333 0.8735000000
