al_defect_vacancy_small_relax_02
1.0
4.0500000000 0.0000000000 0.0000000000
0.0000000000 4.0500000000 0.0000000000
0.0000000000 0.0000000000 4.0500000000
Al
3
Direct
0.9970000000 0.9970000000 0.9970000000
0.0000000000 0.5030000000 0.4970000000
0.5030000000 0.0000000000 0.4970000000
