gaas_defect_asvac_small_relax_02
1.0
5.7000000000 0.0000000000 0.0000000000
0.0000000000 5.7000000000 0.0000000000
0.0000000000 0.0000000000 5.7000000000
Ga As
4 3
Direct
0.0030000000 0.0030000000 0.0030000000
0.9970000000 0.5000000000 0.5030000000
0.5000000000 0.9970000000 0.5030000000
0.5030000000 0.5030000000 0.0030000000
0.2530000000 0.2530000000 0.2530000000
0.2470000000 0.7500000000 0.7530000000
0.7500000000 0.2470000000 0.7530000000
