G18_relax_layered_chalcogenide_bulk_004
1.0
4.3362000000 0.0000000000 0.0000000000
-2.1681000000 3.7552593559 0.0000000000
0.0000000000 0.0000000000 30.1950000000
Bi Te
2 3
Direct
0.0000000000 0.0000000000 0.4000000000
0.0000000000 0.0000000000 0.6000000000
0.0000000000 0.0000000000 0.3100000000
0.0000000000 0.0000000000 0.5000000000
0.0000000000 0.0000000000 0.6900000000
