Y08_static_hbn_slab_hex_001
1.0
2.5040000000 0.0000000000 0.0000000000
-1.2520000000 2.1685276139 0.0000000000
0.0000000000 0.0000000000 16.0000000000
B N
2 2
Direct
0.3333333333 0.6666666667 0.4600000000
0.6666666667 0.3333333333 0.5400000000
0.6666666667 0.3333333333 0.4600000000
0.3333333333 0.6666666667 0.5400000000
