G26_static_fast_holdout_binary_bulk_002
1.0
4.3027380000 0.0000000000 0.0000000000
0.0000000000 4.3027380000 0.0000000000
0.0000000000 0.0000000000 2.7537523200
Mg F
2 4
Direct
0.0000000000 0.0000000000 0.0000000000
0.5000000000 0.5000000000 0.5000000000
0.3050000000 0.3050000000 0.0000000000
0.6950000000 0.6950000000 0.0000000000
0.8050000000 0.1950000000 0.5000000000
0.1950000000 0.8050000000 0.5000000000
