mno2_rutile_static
1.0
4.4000000000 0.0000000000 0.0000000000
0.0000000000 4.4000000000 0.0000000000
0.0000000000 0.0000000000 2.8700000000
Mn O
2 4
Direct
0.0000000000 0.0000000000 0.0000000000
0.5000000000 0.5000000000 0.5000000000
0.3060000000 0.3060000000 0.0010000000
0.6940000000 0.6950000000 0.0010000000
0.8050000000 0.1940000000 0.5010000000
0.1960000000 0.8060000000 0.5010000000
