tis2_layered_chalcogenide_static
1.0
3.4100000000 0.0000000000 0.0000000000
-1.7050000000 2.9531466269 0.0000000000
0.0000000000 0.0000000000 11.5000000000
Ti S
1 2
Direct
0.0000000000 0.0000000000 0.5000000000
0.3333333333 0.6666666667 0.4200000000
0.6666666667 0.3333333333 0.5800000000
