G03_static_post_transition_bulk_fd_005
1.0
4.4055000000 0.0000000000 0.0000000000
0.0000000000 4.4055000000 0.0000000000
0.0000000000 0.0000000000 4.4055000000
Te
4
Direct
0.0000000000 0.0000000000 0.0000000000
0.0000000000 0.5000000000 0.5000000000
0.5000000000 0.0000000000 0.5000000000
0.5000000000 0.5000000000 0.0000000000
