snse2_layered_chalcogenide_relax
1.0
3.8200000000 0.0000000000 0.0000000000
-1.9100000000 3.3082170425 0.0000000000
0.0300000000 0.0000000000 13.4000000000
Sn Se
1 2
Direct
0.0000000000 0.0000000000 0.5000000000
0.3333333333 0.6666666667 0.4200000000
0.6681666667 0.3318333333 0.5800000000
