G07_static_perovskite_oxide_bulk_001
1.0
3.9105000000 0.0000000000 0.0000000000
0.0000000000 3.9105000000 0.0000000000
0.0000000000 0.0000000000 3.9105000000
K Ta O
1 1 3
Direct
0.0000000000 0.0000000000 0.0000000000
0.5000000000 0.5000000000 0.5000000000
0.5000000000 0.5000000000 0.0000000000
0.5000000000 0.0000000000 0.5000000000
0.0000000000 0.5000000000 0.5000000000
