G25_static_fast_holdout_metal_bulk_mp_002
1.0
5.5242000000 0.0000000000 0.0000000000
0.0000000000 5.5242000000 0.0000000000
0.0000000000 0.0000000000 5.5242000000
Ca
4
Direct
0.0000000000 0.0000000000 0.0000000000
0.0000000000 0.5000000000 0.5000000000
0.5000000000 0.0000000000 0.5000000000
0.5000000000 0.5000000000 0.0000000000
