SYSTEM = vo2_defect_ovac_relax
GGA = PE
PREC = Normal
ENCUT = 520
EDIFF = 1e-05
EDIFFG = -0.05
ISPIN = 2
MAGMOM = 3 3 0 0 0
ISMEAR = 1
SIGMA = 0.12
NELM = 60
NSW = 5
IBRION = 2
ISIF = 2
POTIM = 0.12
IMIX = 4
