vo2_defect_ovac_relax
1.0
4.5500000000 0.0000000000 0.0000000000
0.0000000000 4.5500000000 0.0000000000
0.0000000000 0.0000000000 2.8500000000
V O
2 3
Direct
0.0020000000 0.0020000000 0.0020000000
0.4980000000 0.5000000000 0.5020000000
0.3070000000 0.3070000000 0.0020000000
0.6930000000 0.6950000000 0.0020000000
0.8050000000 0.1930000000 0.5020000000
