co_bcc_like_metal_static
1.0
2.8500000000 0.0000000000 0.0000000000
0.0100000000 2.8500000000 0.0000000000
0.0000000000 0.0000000000 2.8500000000
Co
2
Direct
0.9990000000 0.9990000000 0.9990000000
0.5000000000 0.5010000000 0.4990000000
