G09_static_compound_defect_auto_003
1.0
12.1176000000 0.0000000000 0.0000000000
0.0000000000 12.1176000000 0.0000000000
0.0000000000 0.0000000000 6.0588000000
Pb Se
15 17
Direct
0.0000000000 0.0000000000 0.0000000000
0.0000000000 0.2500000000 0.5000000000
0.2500000000 0.0000000000 0.5000000000
0.2500000000 0.2500000000 0.0000000000
0.0000000000 0.5000000000 0.0000000000
0.0000000000 0.7500000000 0.5000000000
0.2500000000 0.5000000000 0.5000000000
0.2500000000 0.7500000000 0.0000000000
0.5000000000 0.2500000000 0.5000000000
0.7500000000 0.0000000000 0.5000000000
0.7500000000 0.2500000000 0.0000000000
0.5000000000 0.5000000000 0.0000000000
0.5000000000 0.7500000000 0.5000000000
0.7500000000 0.5000000000 0.5000000000
0.7500000000 0.7500000000 0.0000000000
0.2500000000 0.2500000000 0.5000000000
0.2500000000 0.0000000000 0.0000000000
0.0000000000 0.2500000000 0.0000000000
0.0000000000 0.0000000000 0.5000000000
0.2500000000 0.7500000000 0.5000000000
0.2500000000 0.5000000000 0.0000000000
0.0000000000 0.7500000000 0.0000000000
0.0000000000 0.5000000000 0.5000000000
0.5000000000 0.0000000000 0.0000000000
0.7500000000 0.2500000000 0.5000000000
0.7500000000 0.0000000000 0.0000000000
0.5000000000 0.2500000000 0.0000000000
0.5000000000 0.0000000000 0.5000000000
0.7500000000 0.7500000000 0.5000000000
0.7500000000 0.5000000000 0.0000000000
0.5000000000 0.7500000000 0.0000000000
0.5000000000 0.5000000000 0.5000000000
