SYSTEM = G16_relax_insulator_bulk_holdout_002
GGA = PE
ENCUT = 520
EDIFF = 1e-06
EDIFFG = -0.04
ISPIN = 1
ISMEAR = 0
SIGMA = 0.05
NSW = 50
IBRION = 2
ISIF = 2
