SYSTEM = Y120_static_p2s5_molecule_lreal_true_001
GGA = PE
PREC = Normal
ENCUT = 400
EDIFF = 1e-05
NELM = 60
ISPIN = 1
ISMEAR = 0
SIGMA = 0.05
NSW = 0
IBRION = -1
ISIF = 2
IMIX = 1
ALGO = Normal
LREAL = .TRUE.
ISYM = 0
