Y120_static_p2s5_molecule_lreal_true_001
1.0
16.0000000000 0.0000000000 0.0000000000
0.0000000000 16.0000000000 0.0000000000
0.0000000000 0.0000000000 16.0000000000
P S
2 5
Direct
0.4500000000 0.5000000000 0.5000000000
0.5500000000 0.5000000000 0.5000000000
0.3800000000 0.5000000000 0.5000000000
0.6200000000 0.5000000000 0.5000000000
0.5000000000 0.5800000000 0.5000000000
0.5000000000 0.4200000000 0.5000000000
0.5000000000 0.5000000000 0.6000000000
