SYSTEM = G19_relax_magnetic_holdout_bulk_002
GGA = PE
ENCUT = 520
EDIFF = 1e-06
EDIFFG = -0.04
ISPIN = 2
ISMEAR = 1
SIGMA = 0.2
NSW = 40
IBRION = 2
ISIF = 2
MAGMOM = 3 3
