Y07_static_bcc_fe_spin_001
1.0
2.8665000000 0.0000000000 0.0000000000
0.0000000000 2.8665000000 0.0000000000
0.0000000000 0.0000000000 2.8665000000
Fe
2
Direct
0.0000000000 0.0000000000 0.0000000000
0.5000000000 0.5000000000 0.5000000000
