bese_wurtzite_static
1.0
3.5500000000 0.0000000000 0.0000000000
-1.7750000000 3.0743901834 0.0000000000
0.0000000000 0.0000000000 5.8000000000
Be Se
2 2
Direct
0.0010000000 0.0010000000 0.0010000000
0.6656666667 0.3333333333 0.5010000000
0.0000000000 0.0000000000 0.3750000000
0.6676666667 0.3323333333 0.8750000000
