Y104_static_graphite_shear_lreal_true_stress_001
1.0
2.4600000000 0.0000000000 0.0000000000
-1.1400000000 2.1304220000 0.0000000000
0.2200000000 0.0600000000 13.0000000000
C
4
Direct
0.0030000000 0.9980000000 0.2510000000
0.3303333333 0.6686666667 0.2490000000
0.0030000000 0.9980000000 0.7510000000
0.6636666667 0.3353333333 0.7490000000
