ges2_rutile_like_relax
1.0
4.8500000000 0.0000000000 0.0000000000
0.0100000000 4.8500000000 0.0000000000
0.0000000000 0.0000000000 3.1500000000
Ge S
2 4
Direct
0.0000000000 0.0000000000 0.0000000000
0.5000000000 0.5000000000 0.5000000000
0.3040000000 0.3040000000 0.9990000000
0.6950000000 0.6960000000 0.9990000000
0.8060000000 0.1950000000 0.4990000000
0.1940000000 0.8040000000 0.4990000000
