G09_static_compound_defect_auto_004
1.0
7.9794000000 0.0000000000 0.0000000000
0.0000000000 7.9794000000 0.0000000000
0.0000000000 0.0000000000 3.9897000000
Li F
16 16
Direct
0.0000000000 0.0000000000 0.0000000000
0.0000000000 0.2500000000 0.5000000000
0.2500000000 0.0000000000 0.5000000000
0.2500000000 0.2500000000 0.0000000000
0.0000000000 0.5000000000 0.0000000000
0.0000000000 0.7500000000 0.5000000000
0.2500000000 0.5000000000 0.5000000000
0.2500000000 0.7500000000 0.0000000000
0.5000000000 0.0000000000 0.0000000000
0.5000000000 0.2500000000 0.5000000000
0.7500000000 0.0000000000 0.5000000000
0.7500000000 0.2500000000 0.0000000000
0.5000000000 0.5000000000 0.0000000000
0.5000000000 0.7500000000 0.5000000000
0.7500000000 0.5000000000 0.5000000000
0.7500000000 0.7500000000 0.0000000000
0.2500000000 0.2500000000 0.5000000000
0.2500000000 0.0000000000 0.0000000000
0.0000000000 0.2500000000 0.0000000000
0.0000000000 0.0000000000 0.5000000000
0.2500000000 0.7500000000 0.5000000000
0.2500000000 0.5000000000 0.0000000000
0.0000000000 0.7500000000 0.0000000000
0.0000000000 0.5000000000 0.5000000000
0.7500000000 0.0000000000 0.0000000000
0.5000000000 0.2500000000 0.0000000000
0.5000000000 0.0000000000 0.5000000000
0.7500000000 0.7500000000 0.5000000000
0.7500000000 0.5000000000 0.0000000000
0.5000000000 0.7500000000 0.0000000000
0.5000000000 0.5000000000 0.5000000000
0.1250000000 0.1250000000 0.1250000000
