cao_rocksalt_relax
1.0
4.8100000000 0.0000000000 0.0000000000
0.0000000000 4.8100000000 0.0000000000
0.0000000000 0.0000000000 4.8100000000
Ca O
4 4
Direct
0.9980000000 0.9980000000 0.9980000000
0.0000000000 0.5020000000 0.4980000000
0.5020000000 0.0000000000 0.4980000000
0.4980000000 0.4980000000 0.9980000000
0.5000000000 0.5000000000 0.5000000000
0.5020000000 0.9980000000 0.0000000000
0.9980000000 0.5020000000 0.0000000000
0.0000000000 0.0000000000 0.5000000000
