cdse_wurtzite_static
1.0
4.3000000000 0.0000000000 0.0000000000
-2.1500000000 3.7239092363 0.0000000000
0.0000000000 0.0000000000 7.0200000000
Cd Se
2 2
Direct
0.9990000000 0.9990000000 0.9990000000
0.6666666667 0.3343333333 0.4990000000
0.0010000000 0.0010000000 0.3760000000
0.6656666667 0.3333333333 0.8760000000
