si_defect_vacancy_small_relax_02
1.0
5.4300000000 0.0000000000 0.0000000000
0.0000000000 5.4300000000 0.0000000000
0.0000000000 0.0000000000 5.4300000000
Si
7
Direct
0.0000000000 0.0000000000 0.0000000000
0.0030000000 0.4970000000 0.5000000000
0.4970000000 0.0030000000 0.5000000000
0.5000000000 0.5000000000 0.0000000000
0.2530000000 0.2470000000 0.2500000000
0.2470000000 0.7530000000 0.7500000000
0.7500000000 0.2500000000 0.7500000000
