bes_rocksalt_static
1.0
4.8500000000 0.0000000000 0.0000000000
0.0000000000 4.8500000000 0.0000000000
0.0000000000 0.0000000000 4.8500000000
Be S
4 4
Direct
0.0000000000 0.0000000000 0.0000000000
0.0010000000 0.4990000000 0.5000000000
0.4990000000 0.0010000000 0.5000000000
0.5000000000 0.5000000000 0.0000000000
0.5010000000 0.5010000000 0.5010000000
0.4990000000 0.0000000000 0.0010000000
0.0000000000 0.4990000000 0.0010000000
0.0010000000 0.0010000000 0.5010000000
