bn_wurtzite_static
1.0
2.5500000000 0.0000000000 0.0000000000
-1.2750000000 2.2083647797 0.0000000000
0.0000000000 0.0000000000 4.2000000000
B N
2 2
Direct
0.0000000000 0.0000000000 0.0000000000
0.6666666667 0.3333333333 0.5000000000
0.0000000000 0.0000000000 0.3750000000
0.6666666667 0.3333333333 0.8750000000
