Y127_relax_crn_afm_isif3_ismear2_001
1.0
4.1400000000 0.0000000000 0.0000000000
0.0500000000 4.1400000000 0.0000000000
0.0200000000 0.0300000000 4.1400000000
Cr N
4 4
Direct
0.0020000000 0.9990000000 0.0000000000
0.9980000000 0.5010000000 0.5000000000
0.5020000000 0.9990000000 0.5000000000
0.4980000000 0.5010000000 0.0000000000
0.5000000000 0.5000000000 0.5000000000
0.5000000000 0.0000000000 0.0000000000
0.0000000000 0.5000000000 0.0000000000
0.0000000000 0.0000000000 0.5000000000
