case_rocksalt_static
1.0
5.9200000000 0.0000000000 0.0000000000
0.0000000000 5.9200000000 0.0000000000
0.0000000000 0.0000000000 5.9200000000
Ca Se
4 4
Direct
0.9990000000 0.9990000000 0.9990000000
0.0000000000 0.5010000000 0.4990000000
0.5010000000 0.0000000000 0.4990000000
0.4990000000 0.4990000000 0.9990000000
0.5000000000 0.5000000000 0.5000000000
0.5010000000 0.9990000000 0.0000000000
0.9990000000 0.5010000000 0.0000000000
0.0000000000 0.0000000000 0.5000000000
