tin_rocksalt_static
1.0
4.2400000000 0.0000000000 0.0000000000
0.0000000000 4.2400000000 0.0000000000
0.0000000000 0.0000000000 4.2400000000
Ti N
4 4
Direct
0.0000000000 0.0000000000 0.0000000000
0.0020000000 0.4980000000 0.5000000000
0.4980000000 0.0020000000 0.5000000000
0.5000000000 0.5000000000 0.0000000000
0.5020000000 0.5020000000 0.5020000000
0.4980000000 0.0000000000 0.0020000000
0.0000000000 0.4980000000 0.0020000000
0.0020000000 0.0020000000 0.5020000000
