Y01_static_hcp_mg_hex_001
1.0
3.2094000000 0.0000000000 0.0000000000
-1.6047000000 2.7794133327 0.0000000000
0.0000000000 0.0000000000 5.2100000000
Mg
2
Direct
0.0000000000 0.0000000000 0.0000000000
0.6666666667 0.3333333333 0.5000000000
