SYSTEM = srvo3_supercell_2x2x1_static
GGA = PE
PREC = Normal
ENCUT = 520
EDIFF = 1e-05
ISPIN = 2
MAGMOM = 0 0 0 0 3 3 3 3 0 0 0 0 0 0 0 0 0 0 0 0
ISMEAR = 1
SIGMA = 0.15
NELM = 60
NSW = 0
IBRION = -1
ISIF = 2
IMIX = 4
