srvo3_supercell_2x2x1_static
1.0
7.6800000000 0.0000000000 0.0000000000
0.0000000000 7.6800000000 0.0000000000
0.0000000000 0.0000000000 3.8400000000
Sr V O
4 4 12
Direct
0.0008000000 0.0008000000 0.0008000000
0.9992000000 0.5000000000 0.0008000000
0.5000000000 0.9992000000 0.0008000000
0.5008000000 0.5008000000 0.0008000000
0.2508000000 0.2508000000 0.5008000000
0.2492000000 0.7500000000 0.5008000000
0.7500000000 0.2492000000 0.5008000000
0.7508000000 0.7508000000 0.5008000000
0.2508000000 0.2508000000 0.0008000000
0.2492000000 0.0000000000 0.5008000000
0.0000000000 0.2492000000 0.5008000000
0.2508000000 0.7508000000 0.0008000000
0.2492000000 0.5000000000 0.5008000000
0.0000000000 0.7492000000 0.5008000000
0.7508000000 0.2508000000 0.0008000000
0.7492000000 0.0000000000 0.5008000000
0.5000000000 0.2492000000 0.5008000000
0.7508000000 0.7508000000 0.0008000000
0.7492000000 0.5000000000 0.5008000000
0.5000000000 0.7492000000 0.5008000000
