gese2_layered_static
1.0
3.7000000000 0.0000000000 0.0000000000
-1.8500000000 3.2042939940 0.0000000000
0.0000000000 0.0000000000 12.8000000000
Ge Se
1 2
Direct
0.0000000000 0.0000000000 0.5000000000
0.3343333333 0.6676666667 0.4210000000
0.6656666667 0.3333333333 0.5810000000
