SYSTEM = Y138_relax_znse_zincblende_shifted_isif3_001
GGA = PE
PREC = Normal
ENCUT = 400
EDIFF = 1e-05
EDIFFG = -0.02
NELM = 60
ISPIN = 1
ISMEAR = 0
SIGMA = 0.05
NSW = 3
IBRION = 2
ISIF = 3
PSTRESS = 1.5
POTIM = 0.18
NFREE = 1
IMIX = 1
ISYM = 1
NBANDS = 40
