Y138_relax_znse_zincblende_shifted_isif3_001
1.0
5.6700000000 0.0000000000 0.0000000000
0.0400000000 5.6700000000 0.0000000000
0.0000000000 0.0200000000 5.6700000000
Zn Se
4 4
Direct
0.0000000000 0.0000000000 0.0000000000
0.0000000000 0.5000000000 0.5000000000
0.5000000000 0.0000000000 0.5000000000
0.5000000000 0.5000000000 0.0000000000
0.2530000000 0.2480000000 0.2500000000
0.2470000000 0.7520000000 0.7500000000
0.7530000000 0.2480000000 0.7500000000
0.7470000000 0.7520000000 0.2500000000
