SYSTEM = co_hcp_metal_static
GGA = PE
PREC = Normal
ENCUT = 420
EDIFF = 1e-05
ISPIN = 2
MAGMOM = 2 2
ISMEAR = 1
SIGMA = 0.2
NELM = 60
NSW = 0
IBRION = -1
ISIF = 2
IMIX = 4
