co_hcp_metal_static
1.0
2.5100000000 0.0000000000 0.0000000000
-1.2550000000 2.1737237635 0.0000000000
0.0100000000 0.0000000000 4.0662000000
Co
2
Direct
0.9980000000 0.9980000000 0.9980000000
0.6666666667 0.3353333333 0.4980000000
