bafeo3_perovskite_relax
1.0
3.9700000000 0.0000000000 0.0000000000
0.0000000000 3.9700000000 0.0000000000
0.0000000000 0.0000000000 3.9700000000
Ba Fe O
1 1 3
Direct
0.0000000000 0.0000000000 0.0000000000
0.5000000000 0.5000000000 0.5000000000
0.5000000000 0.5000000000 0.0000000000
0.5000000000 0.0000000000 0.5000000000
0.0000000000 0.5000000000 0.5000000000
