Automatic mesh
0
Monkhorst-Pack
3 3 4
0 0 0
