G05_static_holdout_semiconductor_bulk_004
1.0
5.6430000000 0.0000000000 0.0000000000
0.0000000000 5.6430000000 0.0000000000
0.0000000000 0.0000000000 5.6430000000
Sn S
4 4
Direct
0.0000000000 0.0000000000 0.0000000000
0.0000000000 0.5000000000 0.5000000000
0.5000000000 0.0000000000 0.5000000000
0.5000000000 0.5000000000 0.0000000000
0.2500000000 0.2500000000 0.2500000000
0.2500000000 0.7500000000 0.7500000000
0.7500000000 0.2500000000 0.7500000000
0.7500000000 0.7500000000 0.2500000000
