G27_relax_fast_holdout_bulk_smoke_005
1.0
3.1185000000 0.0000000000 0.0000000000
0.0000000000 3.1185000000 0.0000000000
0.0000000000 0.0000000000 3.1185000000
Mo
2
Direct
0.0000000000 0.0000000000 0.0000000000
0.5000000000 0.5000000000 0.5000000000
