G16_relax_insulator_bulk_holdout_001
1.0
3.9897000000 0.0000000000 0.0000000000
0.0000000000 3.9897000000 0.0000000000
0.0000000000 0.0000000000 3.9897000000
Li F
4 4
Direct
0.0000000000 0.0000000000 0.0000000000
0.0000000000 0.5000000000 0.5000000000
0.5000000000 0.0000000000 0.5000000000
0.5000000000 0.5000000000 0.0000000000
0.5000000000 0.5000000000 0.5000000000
0.5000000000 0.0000000000 0.0000000000
0.0000000000 0.5000000000 0.0000000000
0.0000000000 0.0000000000 0.5000000000
