mn_bcc_like_metal_relax
1.0
2.9500000000 0.0000000000 0.0000000000
0.0200000000 2.9500000000 0.0000000000
0.0000000000 0.0000000000 2.9500000000
Mn
2
Direct
0.0000000000 0.0000000000 0.0000000000
0.5020000000 0.4980000000 0.5000000000
