srsno3_perovskite_static
1.0
4.0400000000 0.0000000000 0.0000000000
0.0000000000 4.0400000000 0.0000000000
0.0000000000 0.0000000000 4.0400000000
Sr Sn O
1 1 3
Direct
0.0000000000 0.0000000000 0.0000000000
0.5000000000 0.5000000000 0.5000000000
0.5000000000 0.5000000000 0.0000000000
0.5000000000 0.0000000000 0.5000000000
0.0000000000 0.5000000000 0.5000000000
