SYSTEM = G09_static_compound_defect_auto_005
GGA = PE
ENCUT = 520
EDIFF = 1e-06
ISPIN = 1
ISMEAR = 0
SIGMA = 0.05
LREAL = Auto
NSW = 0
IBRION = -1
ISIF = 2
