G09_static_compound_defect_auto_005
1.0
6.2964000000 0.0000000000 0.0000000000
-3.1482000000 5.4528423524 0.0000000000
0.0000000000 0.0000000000 12.1770000000
Mo S
3 8
Direct
0.0000000000 0.0000000000 0.5000000000
0.0000000000 0.5000000000 0.5000000000
0.5000000000 0.5000000000 0.5000000000
0.1666666667 0.3333333333 0.5800000000
0.3333333333 0.1666666667 0.4200000000
0.1666666667 0.8333333333 0.5800000000
0.3333333333 0.6666666667 0.4200000000
0.6666666667 0.3333333333 0.5800000000
0.8333333333 0.1666666667 0.4200000000
0.6666666667 0.8333333333 0.5800000000
0.8333333333 0.6666666667 0.4200000000
