fe_hcp_like_metal_static
1.0
2.5500000000 0.0000000000 0.0000000000
-1.2750000000 2.2083647797 0.0000000000
0.0000000000 0.0000000000 4.1310000000
Fe
2
Direct
0.0000000000 0.0000000000 0.0000000000
0.6676666667 0.3323333333 0.5000000000
