Y135_relax_b4c_network_lreal_auto_001
1.0
5.1800000000 0.0000000000 0.0000000000
0.1800000000 5.0200000000 0.0000000000
0.1000000000 0.0800000000 5.2800000000
B C
6 2
Direct
0.1020000000 0.0990000000 0.1000000000
0.5980000000 0.6010000000 0.1000000000
0.1020000000 0.5990000000 0.6000000000
0.5980000000 0.1010000000 0.6000000000
0.3520000000 0.3490000000 0.3500000000
0.8480000000 0.8510000000 0.8500000000
0.2530000000 0.7480000000 0.2500000000
0.7470000000 0.2520000000 0.7500000000
