srte_zincblende_static
1.0
7.1000000000 0.0000000000 0.0000000000
0.0000000000 7.1000000000 0.0000000000
0.0000000000 0.0000000000 7.1000000000
Sr Te
4 4
Direct
0.0000000000 0.0000000000 0.0000000000
0.0000000000 0.5000000000 0.5000000000
0.5000000000 0.0000000000 0.5000000000
0.5000000000 0.5000000000 0.0000000000
0.2512000000 0.2512000000 0.2512000000
0.2488000000 0.7500000000 0.7512000000
0.7500000000 0.2488000000 0.7512000000
0.7512000000 0.7512000000 0.2512000000
