kbr_rocksalt_relax
1.0
6.6000000000 0.0000000000 0.0000000000
0.0000000000 6.6000000000 0.0000000000
0.0000000000 0.0000000000 6.6000000000
K Br
4 4
Direct
0.9980000000 0.9980000000 0.9980000000
0.0000000000 0.5020000000 0.4980000000
0.5020000000 0.0000000000 0.4980000000
0.4980000000 0.4980000000 0.9980000000
0.5000000000 0.5000000000 0.5000000000
0.5020000000 0.9980000000 0.0000000000
0.9980000000 0.5020000000 0.0000000000
0.0000000000 0.0000000000 0.5000000000
