G26_static_fast_holdout_binary_bulk_003
1.0
7.4665800000 0.0000000000 0.0000000000
0.0000000000 7.4665800000 0.0000000000
0.0000000000 0.0000000000 7.4665800000
Ca F
4 8
Direct
0.0000000000 0.0000000000 0.0000000000
0.0000000000 0.5000000000 0.5000000000
0.5000000000 0.0000000000 0.5000000000
0.5000000000 0.5000000000 0.0000000000
0.2500000000 0.2500000000 0.2500000000
0.2500000000 0.2500000000 0.7500000000
0.2500000000 0.7500000000 0.2500000000
0.2500000000 0.7500000000 0.7500000000
0.7500000000 0.2500000000 0.2500000000
0.7500000000 0.2500000000 0.7500000000
0.7500000000 0.7500000000 0.2500000000
0.7500000000 0.7500000000 0.7500000000
