tise2_layered_chalcogenide_static
1.0
3.5400000000 0.0000000000 0.0000000000
-1.7700000000 3.0657299294 0.0000000000
0.0000000000 0.0000000000 12.0000000000
Ti Se
1 2
Direct
0.0000000000 0.0000000000 0.5000000000
0.3333333333 0.6666666667 0.4200000000
0.6666666667 0.3333333333 0.5800000000
