bazro3_perovskite_relax_02
1.0
4.1900000000 0.0000000000 0.0000000000
0.0000000000 4.1900000000 0.0000000000
0.0000000000 0.0000000000 4.1900000000
Ba Zr O
1 1 3
Direct
0.0000000000 0.0000000000 0.0000000000
0.5000000000 0.5000000000 0.5000000000
0.5015000000 0.5015000000 0.0015000000
0.4985000000 0.0000000000 0.5015000000
0.0000000000 0.4985000000 0.5015000000
