Y38_relax_rocksalt_nacl_fcc_isif3_001
1.0
0.0000000000 2.8200000000 2.8200000000
2.8200000000 0.0000000000 2.8200000000
2.8200000000 2.8200000000 0.0000000000
Na Cl
1 1
Direct
0.0000000000 0.0000000000 0.0000000000
0.5150000000 0.5000000000 0.5000000000
