G02_static_late_transition_bulk_mp_003
1.0
3.8016000000 0.0000000000 0.0000000000
0.0000000000 3.8016000000 0.0000000000
0.0000000000 0.0000000000 3.8016000000
Ir
4
Direct
0.0000000000 0.0000000000 0.0000000000
0.0000000000 0.5000000000 0.5000000000
0.5000000000 0.0000000000 0.5000000000
0.5000000000 0.5000000000 0.0000000000
