SYSTEM = Y113_static_moo2_low_sym_ismear2_fast_001
GGA = PE
PREC = Normal
ENCUT = 400
EDIFF = 1e-05
NELM = 60
ISPIN = 1
ISMEAR = 2
SIGMA = 0.18
NSW = 0
IBRION = -1
ISIF = 2
IMIX = 4
ALGO = Fast
ISYM = 0
