Y113_static_moo2_low_sym_ismear2_fast_001
1.0
5.6200000000 0.0000000000 0.0000000000
0.3600000000 4.8600000000 0.0000000000
0.2200000000 0.1400000000 5.6600000000
Mo O
2 4
Direct
0.0000000000 0.0000000000 0.0000000000
0.5000000000 0.5000000000 0.5000000000
0.2630000000 0.3380000000 0.1800000000
0.7370000000 0.6620000000 0.8200000000
0.3430000000 0.7580000000 0.3800000000
0.6570000000 0.2420000000 0.6200000000
