ni_defect_vacancy_small_relax_02
1.0
3.5200000000 0.0000000000 0.0000000000
0.0000000000 3.5200000000 0.0000000000
0.0000000000 0.0000000000 3.5200000000
Ni
3
Direct
0.0000000000 0.0000000000 0.0000000000
0.0030000000 0.4970000000 0.5000000000
0.4970000000 0.0030000000 0.5000000000
