Y116_static_znse_zincblende_nbands_shifted_001
1.0
5.6700000000 0.0000000000 0.0000000000
0.0000000000 5.6700000000 0.0000000000
0.0000000000 0.0000000000 5.6700000000
Zn Se
4 4
Direct
0.0000000000 0.0000000000 0.0000000000
0.0000000000 0.5000000000 0.5000000000
0.5000000000 0.0000000000 0.5000000000
0.5000000000 0.5000000000 0.0000000000
0.2500000000 0.2500000000 0.2500000000
0.2500000000 0.7500000000 0.7500000000
0.7500000000 0.2500000000 0.7500000000
0.7500000000 0.7500000000 0.2500000000
