nbse2_layered_static
1.0
3.4500000000 0.0000000000 0.0000000000
-1.7250000000 2.9877876431 0.0000000000
0.0000000000 0.0000000000 12.6000000000
Nb Se
1 2
Direct
0.0000000000 0.0000000000 0.5000000000
0.3333333333 0.6666666667 0.4200000000
0.6676666667 0.3323333333 0.5800000000
