bn_wurtzite_relax
1.0
2.5755000000 0.0000000000 0.0000000000
-1.2877500000 2.2304484274 0.0000000000
0.0200000000 0.0000000000 4.2000000000
B N
2 2
Direct
0.9990000000 0.9990000000 0.9990000000
0.6666666667 0.3343333333 0.4990000000
0.0015000000 0.0015000000 0.3765000000
0.6651666667 0.3333333333 0.8765000000
