cawo3_perovskite_static
1.0
3.9400000000 0.0000000000 0.0000000000
0.0000000000 3.9400000000 0.0000000000
0.0000000000 0.0000000000 3.9400000000
Ca W O
1 1 3
Direct
0.0000000000 0.0000000000 0.0000000000
0.5000000000 0.5000000000 0.5000000000
0.5000000000 0.5000000000 0.0000000000
0.5010000000 0.9990000000 0.5000000000
0.9990000000 0.5010000000 0.5000000000
