G21_relax_metal_defect_auto_002
1.0
5.7024000000 0.0000000000 0.0000000000
0.0000000000 5.7024000000 0.0000000000
0.0000000000 0.0000000000 2.8512000000
Cr
9
Direct
0.0000000000 0.0000000000 0.0000000000
0.2500000000 0.2500000000 0.5000000000
0.0000000000 0.5000000000 0.0000000000
0.2500000000 0.7500000000 0.5000000000
0.5000000000 0.0000000000 0.0000000000
0.7500000000 0.2500000000 0.5000000000
0.5000000000 0.5000000000 0.0000000000
0.7500000000 0.7500000000 0.5000000000
0.1250000000 0.1250000000 0.1250000000
