sio2_rutile_like_static
1.0
4.1800000000 0.0000000000 0.0000000000
0.0000000000 4.1800000000 0.0000000000
0.0000000000 0.0000000000 2.6600000000
Si O
2 4
Direct
0.0000000000 0.0000000000 0.0000000000
0.5000000000 0.5000000000 0.5000000000
0.3040000000 0.3040000000 0.9990000000
0.6950000000 0.6960000000 0.9990000000
0.8060000000 0.1950000000 0.4990000000
0.1940000000 0.8040000000 0.4990000000
