G05_static_holdout_semiconductor_bulk_003
1.0
6.0588000000 0.0000000000 0.0000000000
0.0000000000 6.0588000000 0.0000000000
0.0000000000 0.0000000000 6.0588000000
Pb Se
4 4
Direct
0.0000000000 0.0000000000 0.0000000000
0.0000000000 0.5000000000 0.5000000000
0.5000000000 0.0000000000 0.5000000000
0.5000000000 0.5000000000 0.0000000000
0.5000000000 0.5000000000 0.5000000000
0.5000000000 0.0000000000 0.0000000000
0.0000000000 0.5000000000 0.0000000000
0.0000000000 0.0000000000 0.5000000000
