inse_layered_chalcogenide_relax
1.0
4.0000000000 0.0000000000 0.0000000000
-2.0000000000 3.4641016151 0.0000000000
0.0300000000 0.0000000000 16.5000000000
In Se
1 2
Direct
0.0000000000 0.0000000000 0.5000000000
0.3318333333 0.6651666667 0.4185000000
0.6666666667 0.3348333333 0.5785000000
