hfse2_layered_static
1.0
3.7600000000 0.0000000000 0.0000000000
-1.8800000000 3.2562555182 0.0000000000
0.0000000000 0.0000000000 12.6000000000
Hf Se
1 2
Direct
0.0000000000 0.0000000000 0.5000000000
0.3333333333 0.6666666667 0.4200000000
0.6676666667 0.3323333333 0.5800000000
