SYSTEM = G25_static_fast_holdout_metal_bulk_mp_001
GGA = PE
ENCUT = 520
EDIFF = 1e-06
ISPIN = 1
ISMEAR = 1
SIGMA = 0.2
NSW = 0
IBRION = -1
ISIF = 2
