G25_static_fast_holdout_metal_bulk_mp_001
1.0
5.1777000000 0.0000000000 0.0000000000
0.0000000000 5.1777000000 0.0000000000
0.0000000000 0.0000000000 5.1777000000
K
4
Direct
0.0000000000 0.0000000000 0.0000000000
0.0000000000 0.5000000000 0.5000000000
0.5000000000 0.0000000000 0.5000000000
0.5000000000 0.5000000000 0.0000000000
