beo_wurtzite_static
1.0
2.7000000000 0.0000000000 0.0000000000
-1.3500000000 2.3382685902 0.0000000000
0.0000000000 0.0000000000 4.3800000000
Be O
2 2
Direct
0.0000000000 0.0000000000 0.0000000000
0.6666666667 0.3333333333 0.5000000000
0.0000000000 0.0000000000 0.3750000000
0.6666666667 0.3333333333 0.8750000000
