aln_defect_nvac_relax
1.0
4.4000000000 0.0000000000 0.0000000000
0.0000000000 4.4000000000 0.0000000000
0.0000000000 0.0000000000 4.4000000000
Al N
4 3
Direct
0.0000000000 0.0000000000 0.0000000000
0.0020000000 0.4980000000 0.5000000000
0.4980000000 0.0020000000 0.5000000000
0.5000000000 0.5000000000 0.0000000000
0.2500000000 0.2500000000 0.2500000000
0.2520000000 0.7480000000 0.7500000000
0.7480000000 0.2520000000 0.7500000000
