Y128_relax_sige_vacancy_fast_default_nelm_001
1.0
5.5500000000 0.0000000000 0.0000000000
0.0500000000 5.5500000000 0.0000000000
0.0200000000 0.0300000000 5.5500000000
Si Ge
4 3
Direct
0.0040000000 0.9980000000 0.0010000000
0.9960000000 0.5020000000 0.4990000000
0.5040000000 0.9980000000 0.5010000000
0.4960000000 0.5020000000 0.9990000000
0.2560000000 0.2470000000 0.2510000000
0.2440000000 0.7530000000 0.7490000000
0.7560000000 0.2470000000 0.7510000000
