SYSTEM = Y107_static_al_wire_box_ismear2_kshift_001
GGA = PE
PREC = Normal
ENCUT = 400
EDIFF = 1e-05
NELM = 60
ISPIN = 1
ISMEAR = 2
SIGMA = 0.22
NSW = 0
IBRION = -1
ISIF = 2
IMIX = 1
ISYM = 0
