Automatic mesh
0
Monkhorst-Pack
6 1 1
0.5 0 0
