Y107_static_al_wire_box_ismear2_kshift_001
1.0
3.9500000000 0.0000000000 0.0000000000
0.0000000000 15.0000000000 0.0000000000
0.0000000000 0.0000000000 15.0000000000
Al
4
Direct
0.0000000000 0.5000000000 0.5000000000
0.5000000000 0.5000000000 0.5000000000
0.2500000000 0.5000000000 0.5000000000
0.7500000000 0.5000000000 0.5000000000
