zno_supercell_rs_2x1x1_relax
1.0
8.6000000000 0.0000000000 0.0000000000
0.0000000000 4.3000000000 0.0000000000
0.0000000000 0.0000000000 4.3000000000
Zn O
8 8
Direct
0.9992000000 0.9992000000 0.9992000000
0.0000000000 0.5008000000 0.4992000000
0.2508000000 0.0000000000 0.4992000000
0.2492000000 0.4992000000 0.9992000000
0.5000000000 0.0008000000 0.9992000000
0.5008000000 0.5000000000 0.4992000000
0.7492000000 0.9992000000 0.4992000000
0.7500000000 0.5008000000 0.9992000000
0.2492000000 0.4992000000 0.4992000000
0.2500000000 0.0008000000 0.9992000000
0.0008000000 0.5000000000 0.9992000000
0.9992000000 0.9992000000 0.4992000000
0.7500000000 0.5008000000 0.4992000000
0.7508000000 0.0000000000 0.9992000000
0.4992000000 0.4992000000 0.9992000000
0.5000000000 0.0008000000 0.4992000000
