srtio3_perovskite_static_02
1.0
3.9100000000 0.0000000000 0.0000000000
0.0000000000 3.9100000000 0.0000000000
0.0000000000 0.0000000000 3.9100000000
Sr Ti O
1 1 3
Direct
0.0000000000 0.0000000000 0.0000000000
0.5000000000 0.5000000000 0.5000000000
0.5000000000 0.5000000000 0.0000000000
0.5000000000 0.0000000000 0.5000000000
0.0000000000 0.5000000000 0.5000000000
