camno3_perovskite_static
1.0
3.7300000000 0.0000000000 0.0000000000
0.0150000000 3.7300000000 0.0000000000
0.0000000000 0.0000000000 3.7300000000
Ca Mn O
1 1 3
Direct
0.0000000000 0.0000000000 0.0000000000
0.5000000000 0.5000000000 0.5000000000
0.5000000000 0.5000000000 0.0000000000
0.5000000000 0.0000000000 0.5000000000
0.0000000000 0.5000000000 0.5000000000
