scalo3_perovskite_like_static
1.0
3.7900000000 0.0000000000 0.0000000000
0.0000000000 3.7900000000 0.0000000000
0.0000000000 0.0000000000 3.7900000000
Sc Al O
1 1 3
Direct
0.0000000000 0.0000000000 0.0000000000
0.5000000000 0.5000000000 0.5000000000
0.5010000000 0.5010000000 0.0010000000
0.4990000000 0.0000000000 0.5010000000
0.0000000000 0.4990000000 0.5010000000
