ag_bcc_like_metal_static
1.0
3.3500000000 0.0000000000 0.0000000000
0.0000000000 3.3500000000 0.0000000000
0.0000000000 0.0000000000 3.3500000000
Ag
2
Direct
0.0010000000 0.0010000000 0.0010000000
0.4990000000 0.5000000000 0.5010000000
