sic_wurtzite_relax
1.0
3.1108000000 0.0000000000 0.0000000000
-1.5554000000 2.6940318261 0.0000000000
0.0200000000 0.0000000000 5.0400000000
Si C
2 2
Direct
0.0010000000 0.0010000000 0.0010000000
0.6656666667 0.3333333333 0.5010000000
0.0000000000 0.0000000000 0.3750000000
0.6681666667 0.3318333333 0.8750000000
