Y118_static_hbn_vacancy_isym0_default_nelm_001
1.0
2.5200000000 0.0000000000 0.0000000000
-1.2600000000 2.1823840000 0.0000000000
0.0400000000 0.0200000000 18.0000000000
B N
2 1
Direct
0.0000000000 0.0000000000 0.5000000000
0.3333333333 0.6666666667 0.5000000000
0.6666666667 0.3333333333 0.5000000000
