G13_relax_alkali_early_metal_isif2_003
1.0
2.9997000000 0.0000000000 0.0000000000
0.0000000000 2.9997000000 0.0000000000
0.0000000000 0.0000000000 2.9997000000
V
2
Direct
0.0000000000 0.0000000000 0.0000000000
0.5000000000 0.5000000000 0.5000000000
