Y73_static_bc_zincblende_gaussian_imix1_001
1.0
3.7000000000 0.0000000000 0.0000000000
0.0000000000 3.7000000000 0.0000000000
0.0000000000 0.0000000000 3.7000000000
B C
4 4
Direct
0.0000000000 0.0000000000 0.0000000000
0.0000000000 0.5000000000 0.5000000000
0.5000000000 0.0000000000 0.5000000000
0.5000000000 0.5000000000 0.0000000000
0.2500000000 0.2500000000 0.2500000000
0.2500000000 0.7500000000 0.7500000000
0.7500000000 0.2500000000 0.7500000000
0.7500000000 0.7500000000 0.2500000000
