gan_wurtzite_shift_static
1.0
3.2000000000 0.0000000000 0.0000000000
-1.6000000000 2.7712812921 0.0000000000
0.0000000000 0.0000000000 5.2000000000
Ga N
2 2
Direct
0.9990000000 0.9990000000 0.9990000000
0.6666666667 0.3343333333 0.4990000000
0.0010000000 0.0010000000 0.3760000000
0.6656666667 0.3333333333 0.8760000000
