G03_static_post_transition_bulk_fd_001
1.0
5.7717000000 0.0000000000 0.0000000000
0.0000000000 5.7717000000 0.0000000000
0.0000000000 0.0000000000 5.7717000000
Sn
4
Direct
0.0000000000 0.0000000000 0.0000000000
0.0000000000 0.5000000000 0.5000000000
0.5000000000 0.0000000000 0.5000000000
0.5000000000 0.5000000000 0.0000000000
