agbr_zincblende_static
1.0
5.7800000000 0.0000000000 0.0000000000
0.0100000000 5.7800000000 0.0000000000
0.0000000000 0.0000000000 5.7800000000
Ag Br
4 4
Direct
0.0000000000 0.0000000000 0.0000000000
0.0000000000 0.5000000000 0.5000000000
0.5000000000 0.0000000000 0.5000000000
0.5000000000 0.5000000000 0.0000000000
0.2488000000 0.2488000000 0.2488000000
0.2500000000 0.7512000000 0.7488000000
0.7512000000 0.2500000000 0.7488000000
0.7488000000 0.7488000000 0.2488000000
