Y04_static_wurtzite_zno_polar_001
1.0
3.2495000000 0.0000000000 0.0000000000
-1.6247500000 2.8141497418 0.0000000000
0.0000000000 0.0000000000 5.2069000000
Zn O
2 2
Direct
0.0000000000 0.0000000000 0.0000000000
0.3333333333 0.6666666667 0.5000000000
0.0000000000 0.0000000000 0.3825000000
0.3333333333 0.6666666667 0.8825000000
