G28_static_fast_molecule_box_holdout_002
1.0
12.0000000000 0.0000000000 0.0000000000
0.0000000000 12.0000000000 0.0000000000
0.0000000000 0.0000000000 12.0000000000
F
2
Cartesian
6.0000000000 6.0000000000 5.2900000000
6.0000000000 6.0000000000 6.7100000000
