cds_wurtzite_static
1.0
4.1400000000 0.0000000000 0.0000000000
-2.0700000000 3.5853451717 0.0000000000
0.0000000000 0.0000000000 6.7200000000
Cd S
2 2
Direct
0.0000000000 0.0000000000 0.0000000000
0.6666666667 0.3333333333 0.5000000000
0.0000000000 0.0000000000 0.3750000000
0.6666666667 0.3333333333 0.8750000000
