Y02_static_mos2_layer_vacuum_001
1.0
3.1800000000 0.0000000000 0.0000000000
-1.5900000000 2.7539607840 0.0000000000
0.0000000000 0.0000000000 18.0000000000
Mo S
1 2
Direct
0.0000000000 0.0000000000 0.5000000000
0.3333333333 0.6666666667 0.5850000000
0.6666666667 0.3333333333 0.4150000000
