mote2_layered_relax
1.0
3.5200000000 0.0000000000 0.0000000000
-1.7600000000 3.0484094213 0.0000000000
0.0150000000 0.0000000000 13.2000000000
Mo Te
1 2
Direct
0.0000000000 0.0000000000 0.5000000000
0.3343333333 0.6676666667 0.4210000000
0.6656666667 0.3333333333 0.5810000000
