Y114_static_b4c_network_lreal_true_001
1.0
5.1800000000 0.0000000000 0.0000000000
0.1800000000 5.0200000000 0.0000000000
0.1000000000 0.0800000000 5.2800000000
B C
6 2
Direct
0.1000000000 0.1000000000 0.1000000000
0.6000000000 0.6000000000 0.1000000000
0.1000000000 0.6000000000 0.6000000000
0.6000000000 0.1000000000 0.6000000000
0.3500000000 0.3500000000 0.3500000000
0.8500000000 0.8500000000 0.8500000000
0.2500000000 0.7500000000 0.2500000000
0.7500000000 0.2500000000 0.7500000000
