SYSTEM = Y131_relax_al_slab_potim_large_ismear2_001
GGA = PE
PREC = Normal
ENCUT = 400
EDIFF = 1e-05
EDIFFG = -0.02
NELM = 60
ISPIN = 1
ISMEAR = 2
SIGMA = 0.2
NSW = 4
IBRION = 2
ISIF = 2
POTIM = 0.28
NFREE = 1
IMIX = 2
ISYM = 0
