Y131_relax_al_slab_potim_large_ismear2_001
1.0
4.0400000000 0.0000000000 0.0000000000
0.0000000000 4.0400000000 0.0000000000
0.0400000000 0.0200000000 18.0000000000
Al
6
Direct
0.0000000000 0.0000000000 0.4000000000
0.5000000000 0.5000000000 0.4000000000
0.0000000000 0.5000000000 0.5200000000
0.5000000000 0.0000000000 0.5200000000
0.0000000000 0.0000000000 0.6400000000
0.5000000000 0.5000000000 0.6400000000
