cavo3_perovskite_relax
1.0
3.7700000000 0.0000000000 0.0000000000
0.0000000000 3.7700000000 0.0000000000
0.0000000000 0.0000000000 3.7700000000
Ca V O
1 1 3
Direct
0.0000000000 0.0000000000 0.0000000000
0.5000000000 0.5000000000 0.5000000000
0.5015000000 0.5015000000 0.0015000000
0.4985000000 0.0000000000 0.5015000000
0.0000000000 0.4985000000 0.5015000000
