zno_wurtzite_shift_relax
1.0
3.2800000000 0.0000000000 0.0000000000
-1.6400000000 2.8405633244 0.0000000000
0.0000000000 0.0000000000 5.2400000000
Zn O
2 2
Direct
0.0010000000 0.0010000000 0.0010000000
0.6656666667 0.3333333333 0.5010000000
0.0000000000 0.0000000000 0.3750000000
0.6676666667 0.3323333333 0.8750000000
