zn_hcp_metal_static
1.0
2.6600000000 0.0000000000 0.0000000000
-1.3300000000 2.3036275741 0.0000000000
0.0100000000 0.0000000000 4.3092000000
Zn
2
Direct
0.9980000000 0.9980000000 0.9980000000
0.6666666667 0.3353333333 0.4980000000
