Y05_static_black_p_orthorhombic_001
1.0
3.3130000000 0.0000000000 0.0000000000
0.0000000000 10.4730000000 0.0000000000
0.0000000000 0.0000000000 4.3740000000
P
4
Direct
0.0806000000 0.1017000000 0.0000000000
0.4194000000 0.3983000000 0.0000000000
0.5806000000 0.6017000000 0.5000000000
0.9194000000 0.8983000000 0.5000000000
