canio3_perovskite_relax
1.0
3.7600000000 0.0000000000 0.0000000000
0.0000000000 3.7600000000 0.0000000000
0.0000000000 0.0000000000 3.7600000000
Ca Ni O
1 1 3
Direct
0.0000000000 0.0000000000 0.0000000000
0.5000000000 0.5000000000 0.5000000000
0.5000000000 0.5000000000 0.0000000000
0.5010000000 0.9990000000 0.5000000000
0.9990000000 0.5010000000 0.5000000000
