mgte_wurtzite_static
1.0
4.5200000000 0.0000000000 0.0000000000
-2.2600000000 3.9144348251 0.0000000000
0.0000000000 0.0000000000 7.3600000000
Mg Te
2 2
Direct
0.0000000000 0.0000000000 0.0000000000
0.6666666667 0.3333333333 0.5000000000
0.0000000000 0.0000000000 0.3750000000
0.6666666667 0.3333333333 0.8750000000
