aln_rocksalt_static
1.0
4.0500000000 0.0000000000 0.0000000000
0.0000000000 4.0500000000 0.0000000000
0.0000000000 0.0000000000 4.0500000000
Al N
4 4
Direct
0.0010000000 0.0010000000 0.0010000000
0.9990000000 0.5000000000 0.5010000000
0.5000000000 0.9990000000 0.5010000000
0.5010000000 0.5010000000 0.0010000000
0.4990000000 0.4990000000 0.4990000000
0.5000000000 0.0010000000 0.9990000000
0.0010000000 0.5000000000 0.9990000000
0.9990000000 0.9990000000 0.4990000000
