Y03_static_rutile_tio2_tetragonal_001
1.0
4.5937000000 0.0000000000 0.0000000000
0.0000000000 4.5937000000 0.0000000000
0.0000000000 0.0000000000 2.9587000000
Ti O
2 4
Direct
0.0000000000 0.0000000000 0.0000000000
0.5000000000 0.5000000000 0.5000000000
0.3049000000 0.3049000000 0.0000000000
0.6951000000 0.6951000000 0.0000000000
0.1951000000 0.8049000000 0.5000000000
0.8049000000 0.1951000000 0.5000000000
