G03_static_post_transition_bulk_fd_003
1.0
4.7025000000 0.0000000000 0.0000000000
0.0000000000 4.7025000000 0.0000000000
0.0000000000 0.0000000000 4.7025000000
Bi
4
Direct
0.0000000000 0.0000000000 0.0000000000
0.0000000000 0.5000000000 0.5000000000
0.5000000000 0.0000000000 0.5000000000
0.5000000000 0.5000000000 0.0000000000
