SYSTEM = G17_relax_perovskite_oxide_bulk_003
GGA = PE
ENCUT = 520
EDIFF = 1e-06
EDIFFG = -0.04
ISPIN = 1
ISMEAR = 0
SIGMA = 0.05
NSW = 50
IBRION = 2
ISIF = 3
