nacl_supercell_2x1x1_static
1.0
11.2800000000 0.0000000000 0.0000000000
0.0000000000 5.6400000000 0.0000000000
0.0000000000 0.0000000000 5.6400000000
Na Cl
8 8
Direct
0.0000000000 0.0000000000 0.0000000000
0.0008000000 0.4992000000 0.5000000000
0.2492000000 0.0008000000 0.5000000000
0.2500000000 0.5000000000 0.0000000000
0.5008000000 0.9992000000 0.0000000000
0.4992000000 0.5008000000 0.5000000000
0.7500000000 0.0000000000 0.5000000000
0.7508000000 0.4992000000 0.0000000000
0.2500000000 0.5000000000 0.5000000000
0.2508000000 0.9992000000 0.0000000000
0.9992000000 0.5008000000 0.0000000000
0.0000000000 0.0000000000 0.5000000000
0.7508000000 0.4992000000 0.5000000000
0.7492000000 0.0008000000 0.0000000000
0.5000000000 0.5000000000 0.0000000000
0.5008000000 0.9992000000 0.5000000000
