nbs2_layered_relax
1.0
3.3300000000 0.0000000000 0.0000000000
-1.6650000000 2.8838645946 0.0000000000
0.0150000000 0.0000000000 12.1000000000
Nb S
1 2
Direct
0.0000000000 0.0000000000 0.5000000000
0.3323333333 0.6656666667 0.4190000000
0.6666666667 0.3343333333 0.5790000000
