sns2_rutile_like_static
1.0
5.3500000000 0.0000000000 0.0000000000
0.0000000000 5.3500000000 0.0000000000
0.0000000000 0.0000000000 3.4500000000
Sn S
2 4
Direct
0.0000000000 0.0000000000 0.0000000000
0.5000000000 0.5000000000 0.5000000000
0.3060000000 0.3060000000 0.0010000000
0.6940000000 0.6950000000 0.0010000000
0.8050000000 0.1940000000 0.5010000000
0.1960000000 0.8060000000 0.5010000000
