G13_relax_alkali_early_metal_isif2_001
1.0
3.4551000000 0.0000000000 0.0000000000
0.0000000000 3.4551000000 0.0000000000
0.0000000000 0.0000000000 3.4551000000
Li
2
Direct
0.0000000000 0.0000000000 0.0000000000
0.5000000000 0.5000000000 0.5000000000
