SYSTEM = Y37_relax_graphene_vacuum_isif2_001
GGA = PE
PREC = Normal
ENCUT = 400
EDIFF = 1e-05
EDIFFG = -0.02
NELM = 60
ISPIN = 1
ISMEAR = 1
SIGMA = 0.15
NSW = 3
IBRION = 2
ISIF = 2
