Y37_relax_graphene_vacuum_isif2_001
1.0
2.4600000000 0.0000000000 0.0000000000
-1.2300000000 2.1304224933 0.0000000000
0.0000000000 0.0000000000 18.0000000000
C
2
Direct
0.0100000000 0.0000000000 0.5000000000
0.3300000000 0.6700000000 0.5020000000
