ba_bcc_metal_static
1.0
5.0200000000 0.0000000000 0.0000000000
0.0100000000 5.0200000000 0.0000000000
0.0000000000 0.0000000000 5.0200000000
Ba
2
Direct
0.9990000000 0.9990000000 0.9990000000
0.5000000000 0.5010000000 0.4990000000
