catio3_supercell_2x2x1_static
1.0
7.6400000000 0.0000000000 0.0000000000
0.0000000000 7.6400000000 0.0000000000
0.0000000000 0.0000000000 3.8200000000
Ca Ti O
4 4 12
Direct
0.0000000000 0.0000000000 0.0000000000
0.0008000000 0.4992000000 0.0000000000
0.4992000000 0.0008000000 0.0000000000
0.5000000000 0.5000000000 0.0000000000
0.2500000000 0.2500000000 0.5000000000
0.2508000000 0.7492000000 0.5000000000
0.7492000000 0.2508000000 0.5000000000
0.7500000000 0.7500000000 0.5000000000
0.2500000000 0.2500000000 0.0000000000
0.2508000000 0.9992000000 0.5000000000
0.9992000000 0.2508000000 0.5000000000
0.2500000000 0.7500000000 0.0000000000
0.2508000000 0.4992000000 0.5000000000
0.9992000000 0.7508000000 0.5000000000
0.7500000000 0.2500000000 0.0000000000
0.7508000000 0.9992000000 0.5000000000
0.4992000000 0.2508000000 0.5000000000
0.7500000000 0.7500000000 0.0000000000
0.7508000000 0.4992000000 0.5000000000
0.4992000000 0.7508000000 0.5000000000
