zrs2_layered_relax
1.0
3.6500000000 0.0000000000 0.0000000000
-1.8250000000 3.1609927238 0.0000000000
0.0150000000 0.0000000000 12.0000000000
Zr S
1 2
Direct
0.0000000000 0.0000000000 0.5000000000
0.3333333333 0.6666666667 0.4200000000
0.6676666667 0.3323333333 0.5800000000
