nacl_rocksalt_relax
1.0
5.6400000000 0.0000000000 0.0000000000
0.0000000000 5.6400000000 0.0000000000
0.0000000000 0.0000000000 5.6400000000
Na Cl
4 4
Direct
0.9980000000 0.9980000000 0.9980000000
0.0000000000 0.5020000000 0.4980000000
0.5020000000 0.0000000000 0.4980000000
0.4980000000 0.4980000000 0.9980000000
0.5000000000 0.5000000000 0.5000000000
0.5020000000 0.9980000000 0.0000000000
0.9980000000 0.5020000000 0.0000000000
0.0000000000 0.0000000000 0.5000000000
