casno3_perovskite_static
1.0
4.0200000000 0.0000000000 0.0000000000
0.0000000000 4.0200000000 0.0000000000
0.0000000000 0.0000000000 4.0200000000
Ca Sn O
1 1 3
Direct
0.0000000000 0.0000000000 0.0000000000
0.5000000000 0.5000000000 0.5000000000
0.5000000000 0.5000000000 0.0000000000
0.5000000000 0.0000000000 0.5000000000
0.0000000000 0.5000000000 0.5000000000
