G28_static_fast_molecule_box_holdout_001
1.0
12.0000000000 0.0000000000 0.0000000000
0.0000000000 12.0000000000 0.0000000000
0.0000000000 0.0000000000 12.0000000000
N
2
Cartesian
6.0000000000 6.0000000000 5.4500000000
6.0000000000 6.0000000000 6.5500000000
