mgfe2o4_spinel_static
1.0
8.3800000000 0.0000000000 0.0000000000
0.0000000000 8.3800000000 0.0000000000
0.0000000000 0.0000000000 8.3800000000
Mg Fe O
2 4 8
Direct
0.1260000000 0.1260000000 0.1260000000
0.6240000000 0.6250000000 0.6260000000
0.4990000000 0.4990000000 0.4990000000
0.5000000000 0.7510000000 0.7490000000
0.7510000000 0.5000000000 0.7490000000
0.7490000000 0.7490000000 0.4990000000
0.2610000000 0.2610000000 0.2610000000
0.2620000000 0.7600000000 0.7610000000
0.7600000000 0.2620000000 0.7610000000
0.7610000000 0.7610000000 0.2610000000
0.2400000000 0.2380000000 0.7390000000
0.2380000000 0.7400000000 0.2390000000
0.7390000000 0.2390000000 0.2390000000
0.7400000000 0.7380000000 0.7390000000
