pd_fcc_like_metal_relax
1.0
3.8900000000 0.0000000000 0.0000000000
0.0000000000 3.8900000000 0.0000000000
0.0000000000 0.0000000000 3.8900000000
Ni
4
Direct
0.0000000000 0.0000000000 0.0000000000
0.0020000000 0.4980000000 0.5000000000
0.4980000000 0.0020000000 0.5000000000
0.5000000000 0.5000000000 0.0000000000
