cu_bcc_like_metal_static
1.0
3.0000000000 0.0000000000 0.0000000000
0.0000000000 3.0000000000 0.0000000000
0.0000000000 0.0000000000 3.0000000000
Cu
2
Direct
0.0000000000 0.0000000000 0.0000000000
0.5010000000 0.4990000000 0.5000000000
