G02_static_late_transition_bulk_mp_005
1.0
2.9502000000 0.0000000000 0.0000000000
0.0000000000 2.9502000000 0.0000000000
0.0000000000 0.0000000000 2.9502000000
Cd
4
Direct
0.0000000000 0.0000000000 0.0000000000
0.0000000000 0.5000000000 0.5000000000
0.5000000000 0.0000000000 0.5000000000
0.5000000000 0.5000000000 0.0000000000
