aln_wurtzite_relax
1.0
3.1411000000 0.0000000000 0.0000000000
-1.5705500000 2.7202723958 0.0000000000
0.0200000000 0.0000000000 4.9800000000
Al N
2 2
Direct
0.0000000000 0.0000000000 0.0000000000
0.6676666667 0.3323333333 0.5000000000
0.9985000000 0.9985000000 0.3735000000
0.6666666667 0.3348333333 0.8735000000
