bp_defect_pvac_relax
1.0
4.5800000000 0.0000000000 0.0000000000
0.0000000000 4.5800000000 0.0000000000
0.0000000000 0.0000000000 4.5800000000
B P
4 3
Direct
0.9980000000 0.9980000000 0.9980000000
0.0000000000 0.5020000000 0.4980000000
0.5020000000 0.0000000000 0.4980000000
0.4980000000 0.4980000000 0.9980000000
0.2480000000 0.2480000000 0.2480000000
0.2500000000 0.7520000000 0.7480000000
0.7520000000 0.2500000000 0.7480000000
