SYSTEM = Y137_relax_feo_afm_pstress_mixpre_001
GGA = PE
PREC = Normal
ENCUT = 400
EDIFF = 1e-05
EDIFFG = -0.02
NELM = 60
ISPIN = 2
MAGMOM = 2 -2 2 -2 4*0
ISMEAR = 1
SIGMA = 0.16
NSW = 3
IBRION = 2
ISIF = 3
PSTRESS = 5.0
POTIM = 0.18
NFREE = 1
IMIX = 4
MIXPRE = 2
ISYM = 0
