Y137_relax_feo_afm_pstress_mixpre_001
1.0
4.3200000000 0.0000000000 0.0000000000
0.0500000000 4.3200000000 0.0000000000
0.0200000000 0.0300000000 4.3200000000
Fe O
4 4
Direct
0.0020000000 0.9990000000 0.0000000000
0.9980000000 0.5010000000 0.5000000000
0.5020000000 0.9990000000 0.5000000000
0.4980000000 0.5010000000 0.0000000000
0.5000000000 0.5000000000 0.5000000000
0.5000000000 0.0000000000 0.0000000000
0.0000000000 0.5000000000 0.0000000000
0.0000000000 0.0000000000 0.5000000000
