zns_defect_svac_relax
1.0
5.4500000000 0.0000000000 0.0000000000
0.0000000000 5.4500000000 0.0000000000
0.0000000000 0.0000000000 5.4500000000
Zn S
4 3
Direct
0.9980000000 0.9980000000 0.9980000000
0.0000000000 0.5020000000 0.4980000000
0.5020000000 0.0000000000 0.4980000000
0.4980000000 0.4980000000 0.9980000000
0.2480000000 0.2480000000 0.2480000000
0.2500000000 0.7520000000 0.7480000000
0.7520000000 0.2500000000 0.7480000000
