Y29_static_kbr_molecule_box_001
1.0
14.0000000000 0.0000000000 0.0000000000
0.0000000000 14.0000000000 0.0000000000
0.0000000000 0.0000000000 14.0000000000
K Br
1 1
Direct
0.4450000000 0.5000000000 0.5000000000
0.6100000000 0.5000000000 0.5000000000
