fe_defect_interstitial_small_relax
1.0
3.2000000000 0.0000000000 0.0000000000
0.0000000000 3.2000000000 0.0000000000
0.0000000000 0.0000000000 3.2000000000
Fe
3
Direct
0.0000000000 0.0000000000 0.0000000000
0.5020000000 0.4980000000 0.5000000000
0.2480000000 0.2520000000 0.2500000000
