bp_zincblende_relax
1.0
4.5400000000 0.0000000000 0.0000000000
0.0000000000 4.5400000000 0.0000000000
0.0000000000 0.0000000000 4.5400000000
B P
4 4
Direct
0.0000000000 0.0000000000 0.0000000000
0.0000000000 0.5000000000 0.5000000000
0.5000000000 0.0000000000 0.5000000000
0.5000000000 0.5000000000 0.0000000000
0.2500000000 0.2500000000 0.2500000000
0.2515000000 0.7485000000 0.7500000000
0.7485000000 0.2515000000 0.7500000000
0.7500000000 0.7500000000 0.2500000000
