al_supercell_2x2x1_static
1.0
8.1000000000 0.0000000000 0.0000000000
0.0000000000 8.1000000000 0.0000000000
0.0000000000 0.0000000000 4.0500000000
Al
16
Direct
0.0000000000 0.0000000000 0.0000000000
0.0008000000 0.2492000000 0.5000000000
0.2492000000 0.0008000000 0.5000000000
0.2500000000 0.2500000000 0.0000000000
0.0008000000 0.4992000000 0.0000000000
0.9992000000 0.7508000000 0.5000000000
0.2500000000 0.5000000000 0.5000000000
0.2508000000 0.7492000000 0.0000000000
0.4992000000 0.0008000000 0.0000000000
0.5000000000 0.2500000000 0.5000000000
0.7508000000 0.9992000000 0.5000000000
0.7492000000 0.2508000000 0.0000000000
0.5000000000 0.5000000000 0.0000000000
0.5008000000 0.7492000000 0.5000000000
0.7492000000 0.5008000000 0.5000000000
0.7500000000 0.7500000000 0.0000000000
