zn_fcc_like_metal_static
1.0
3.8500000000 0.0000000000 0.0000000000
0.0000000000 3.8500000000 0.0000000000
0.0000000000 0.0000000000 3.8500000000
Zn
4
Direct
0.0000000000 0.0000000000 0.0000000000
0.0010000000 0.4990000000 0.5000000000
0.4990000000 0.0010000000 0.5000000000
0.5000000000 0.5000000000 0.0000000000
