srzro3_perovskite_static
1.0
4.1000000000 0.0000000000 0.0000000000
0.0000000000 4.1000000000 0.0000000000
0.0000000000 0.0000000000 4.1000000000
Sr Zr O
1 1 3
Direct
0.0000000000 0.0000000000 0.0000000000
0.5000000000 0.5000000000 0.5000000000
0.5000000000 0.5000000000 0.0000000000
0.5000000000 0.0000000000 0.5000000000
0.0000000000 0.5000000000 0.5000000000
