G25_static_fast_holdout_metal_bulk_mp_004
1.0
3.2670000000 0.0000000000 0.0000000000
0.0000000000 3.2670000000 0.0000000000
0.0000000000 0.0000000000 3.2670000000
Ta
2
Direct
0.0000000000 0.0000000000 0.0000000000
0.5000000000 0.5000000000 0.5000000000
