knbo3_perovskite_static_02
1.0
4.0200000000 0.0000000000 0.0000000000
0.0150000000 4.0200000000 0.0000000000
0.0000000000 0.0000000000 4.0200000000
K Nb O
1 1 3
Direct
0.0000000000 0.0000000000 0.0000000000
0.5000000000 0.5000000000 0.5000000000
0.5000000000 0.5000000000 0.0000000000
0.5000000000 0.0000000000 0.5000000000
0.0000000000 0.5000000000 0.5000000000
