cds_zincblende_shifted_static
1.0
5.8500000000 0.0000000000 0.0000000000
0.0100000000 5.8500000000 0.0000000000
0.0000000000 0.0000000000 5.8500000000
Cd S
4 4
Direct
0.0000000000 0.0000000000 0.0000000000
0.0000000000 0.5000000000 0.5000000000
0.5000000000 0.0000000000 0.5000000000
0.5000000000 0.5000000000 0.0000000000
0.2488000000 0.2488000000 0.2488000000
0.2500000000 0.7512000000 0.7488000000
0.7512000000 0.2500000000 0.7488000000
0.7488000000 0.7488000000 0.2488000000
