zns_wurtzite_static
1.0
3.8200000000 0.0000000000 0.0000000000
-1.9100000000 3.3082170425 0.0000000000
0.0000000000 0.0000000000 6.2600000000
Zn S
2 2
Direct
0.0000000000 0.0000000000 0.0000000000
0.6666666667 0.3333333333 0.5000000000
0.0000000000 0.0000000000 0.3750000000
0.6666666667 0.3333333333 0.8750000000
