G25_static_fast_holdout_metal_bulk_mp_005
1.0
3.1680000000 0.0000000000 0.0000000000
0.0000000000 3.1680000000 0.0000000000
0.0000000000 0.0000000000 3.1680000000
Hf
4
Direct
0.0000000000 0.0000000000 0.0000000000
0.0000000000 0.5000000000 0.5000000000
0.5000000000 0.0000000000 0.5000000000
0.5000000000 0.5000000000 0.0000000000
