SYSTEM = tac_rocksalt_relax
GGA = PE
PREC = Normal
ENCUT = 520
EDIFF = 1e-05
EDIFFG = -0.05
ISPIN = 1
ISMEAR = 1
SIGMA = 0.15
NELM = 60
NSW = 5
IBRION = 2
ISIF = 2
POTIM = 0.12
IMIX = 4
