zr_hcp_metal_static
1.0
3.2300000000 0.0000000000 0.0000000000
-1.6150000000 2.7972620542 0.0000000000
0.0000000000 0.0000000000 5.2326000000
Zr
2
Direct
0.0020000000 0.0020000000 0.0020000000
0.6646666667 0.3333333333 0.5020000000
