co_fcc_like_metal_static
1.0
3.5400000000 0.0000000000 0.0000000000
0.0000000000 3.5400000000 0.0000000000
0.0000000000 0.0000000000 3.5400000000
Co
4
Direct
0.9980000000 0.9980000000 0.9980000000
0.0000000000 0.5020000000 0.4980000000
0.5020000000 0.0000000000 0.4980000000
0.4980000000 0.4980000000 0.9980000000
