G26_static_fast_holdout_binary_bulk_004
1.0
5.0886000000 0.0000000000 0.0000000000
0.0000000000 5.0886000000 0.0000000000
0.0000000000 0.0000000000 5.0886000000
Li Cl
4 4
Direct
0.0000000000 0.0000000000 0.0000000000
0.0000000000 0.5000000000 0.5000000000
0.5000000000 0.0000000000 0.5000000000
0.5000000000 0.5000000000 0.0000000000
0.5000000000 0.5000000000 0.5000000000
0.5000000000 0.0000000000 0.0000000000
0.0000000000 0.5000000000 0.0000000000
0.0000000000 0.0000000000 0.5000000000
