cdte_wurtzite_static
1.0
4.5800000000 0.0000000000 0.0000000000
-2.2900000000 3.9663963493 0.0000000000
0.0000000000 0.0000000000 7.4500000000
Cd Te
2 2
Direct
0.0000000000 0.0000000000 0.0000000000
0.6676666667 0.3323333333 0.5000000000
0.9990000000 0.9990000000 0.3740000000
0.6666666667 0.3343333333 0.8740000000
