nabr_rocksalt_static
1.0
5.9800000000 0.0000000000 0.0000000000
0.0000000000 5.9800000000 0.0000000000
0.0000000000 0.0000000000 5.9800000000
Na Br
4 4
Direct
0.0000000000 0.0000000000 0.0000000000
0.0020000000 0.4980000000 0.5000000000
0.4980000000 0.0020000000 0.5000000000
0.5000000000 0.5000000000 0.0000000000
0.5020000000 0.5020000000 0.5020000000
0.4980000000 0.0000000000 0.0020000000
0.0000000000 0.4980000000 0.0020000000
0.0020000000 0.0020000000 0.5020000000
