fe_defect_interstitial_small_relax_02
1.0
3.2000000000 0.0000000000 0.0000000000
0.0000000000 3.2000000000 0.0000000000
0.0000000000 0.0000000000 3.2000000000
Fe
3
Direct
0.0030000000 0.0030000000 0.0030000000
0.4970000000 0.5000000000 0.5030000000
0.2500000000 0.2470000000 0.2530000000
