SYSTEM = Y106_static_zno_defect_lreal_auto_isym0_001
GGA = PE
PREC = Normal
ENCUT = 400
EDIFF = 1e-05
NELM = 60
ISPIN = 1
ISMEAR = 0
SIGMA = 0.05
NSW = 0
IBRION = -1
ISIF = 2
IMIX = 4
LREAL = Auto
ISYM = 0
