Y106_static_zno_defect_lreal_auto_isym0_001
1.0
6.4200000000 0.0000000000 0.0000000000
0.0800000000 6.4200000000 0.0000000000
0.0300000000 0.0600000000 5.3200000000
Zn O
3 3
Direct
0.0000000000 0.0000000000 0.0000000000
0.5000000000 0.5000000000 0.0000000000
0.0000000000 0.5000000000 0.5000000000
0.3860000000 0.3770000000 0.2500000000
0.6140000000 0.6230000000 0.7500000000
0.1460000000 0.8570000000 0.2500000000
