aln_wurtzite_static
1.0
3.1100000000 0.0000000000 0.0000000000
-1.5550000000 2.6933390058 0.0000000000
0.0000000000 0.0000000000 4.9800000000
Al N
2 2
Direct
0.0000000000 0.0000000000 0.0000000000
0.6666666667 0.3333333333 0.5000000000
0.0000000000 0.0000000000 0.3750000000
0.6666666667 0.3333333333 0.8750000000
