G26_static_fast_holdout_binary_bulk_001
1.0
3.4684650000 0.0000000000 0.0000000000
-1.7342325000 3.0037788021 0.0000000000
0.0000000000 0.0000000000 5.6535979500
Be O
2 2
Direct
0.0000000000 0.0000000000 0.0000000000
0.3333333333 0.6666666667 0.5000000000
0.0000000000 0.0000000000 0.3750000000
0.3333333333 0.6666666667 0.8750000000
