base_rocksalt_relax
1.0
6.5500000000 0.0000000000 0.0000000000
0.0000000000 6.5500000000 0.0000000000
0.0000000000 0.0000000000 6.5500000000
Ba Se
4 4
Direct
0.0010000000 0.0010000000 0.0010000000
0.9990000000 0.5000000000 0.5010000000
0.5000000000 0.9990000000 0.5010000000
0.5010000000 0.5010000000 0.0010000000
0.4990000000 0.4990000000 0.4990000000
0.5000000000 0.0010000000 0.9990000000
0.0010000000 0.5000000000 0.9990000000
0.9990000000 0.9990000000 0.4990000000
