Y123_relax_pbi2_layered_lreal_true_001
1.0
4.5600000000 0.0000000000 0.0000000000
-2.2800000000 3.9491530000 0.0000000000
0.1200000000 0.0400000000 14.2000000000
Pb I
1 2
Selective dynamics
Direct
0.0000000000 0.0000000000 0.5000000000 T T T
0.3333333333 0.6666666667 0.4000000000 F F F
0.6666666667 0.3333333333 0.6000000000 T T T
