znmn2o4_spinel_static
1.0
8.4200000000 0.0000000000 0.0000000000
0.0000000000 8.4200000000 0.0000000000
0.0000000000 0.0000000000 8.4200000000
Zn Mn O
2 4 8
Direct
0.1250000000 0.1250000000 0.1250000000
0.6260000000 0.6240000000 0.6250000000
0.5010000000 0.5010000000 0.5010000000
0.4990000000 0.7500000000 0.7510000000
0.7500000000 0.4990000000 0.7510000000
0.7510000000 0.7510000000 0.5010000000
0.2600000000 0.2600000000 0.2600000000
0.2610000000 0.7620000000 0.7600000000
0.7620000000 0.2610000000 0.7600000000
0.7600000000 0.7600000000 0.2600000000
0.2390000000 0.2400000000 0.7380000000
0.2400000000 0.7390000000 0.2380000000
0.7380000000 0.2380000000 0.2380000000
0.7390000000 0.7400000000 0.7380000000
