G25_static_fast_holdout_metal_bulk_mp_003
1.0
6.0192000000 0.0000000000 0.0000000000
0.0000000000 6.0192000000 0.0000000000
0.0000000000 0.0000000000 6.0192000000
Sr
4
Direct
0.0000000000 0.0000000000 0.0000000000
0.0000000000 0.5000000000 0.5000000000
0.5000000000 0.0000000000 0.5000000000
0.5000000000 0.5000000000 0.0000000000
