Y17_static_diamond_si_cubic_001
1.0
5.4310000000 0.0000000000 0.0000000000
0.0000000000 5.4310000000 0.0000000000
0.0000000000 0.0000000000 5.4310000000
Si
8
Direct
0.0000000000 0.0000000000 0.0000000000
0.2500000000 0.2500000000 0.2500000000
0.0000000000 0.5000000000 0.5000000000
0.2500000000 0.7500000000 0.7500000000
0.5000000000 0.0000000000 0.5000000000
0.7500000000 0.2500000000 0.7500000000
0.5000000000 0.5000000000 0.0000000000
0.7500000000 0.7500000000 0.2500000000
