SYSTEM = G12_static_molecule_box_spin_holdout_005
GGA = PE
ENCUT = 520
EDIFF = 1e-06
ISPIN = 2
ISMEAR = 0
SIGMA = 0.05
NSW = 0
IBRION = -1
ISIF = 2
MAGMOM = 1 0
