G12_static_molecule_box_spin_holdout_005
1.0
12.0000000000 0.0000000000 0.0000000000
0.0000000000 12.0000000000 0.0000000000
0.0000000000 0.0000000000 12.0000000000
N O
1 1
Cartesian
6.0000000000 6.0000000000 5.4200000000
6.0000000000 6.0000000000 6.5800000000
