ge_defect_vacancy_small_relax
1.0
5.6600000000 0.0000000000 0.0000000000
0.0000000000 5.6600000000 0.0000000000
0.0000000000 0.0000000000 5.6600000000
Ge
7
Direct
0.0000000000 0.0000000000 0.0000000000
0.0020000000 0.4980000000 0.5000000000
0.4980000000 0.0020000000 0.5000000000
0.5000000000 0.5000000000 0.0000000000
0.2520000000 0.2480000000 0.2500000000
0.2480000000 0.7520000000 0.7500000000
0.7500000000 0.2500000000 0.7500000000
