cds_zincblende_static
1.0
5.8200000000 0.0000000000 0.0000000000
0.0180000000 5.8200000000 0.0000000000
0.0000000000 0.0000000000 5.8200000000
Cd S
4 4
Direct
0.0000000000 0.0000000000 0.0000000000
0.0000000000 0.5000000000 0.5000000000
0.5000000000 0.0000000000 0.5000000000
0.5000000000 0.5000000000 0.0000000000
0.2500000000 0.2500000000 0.2500000000
0.2515000000 0.7485000000 0.7500000000
0.7485000000 0.2515000000 0.7500000000
0.7500000000 0.7500000000 0.2500000000
