SYSTEM = Y139_relax_c2n_layered_lreal_true_001
GGA = PE
PREC = Normal
ENCUT = 400
EDIFF = 1e-05
EDIFFG = -0.02
NELM = 60
ISPIN = 1
ISMEAR = 0
SIGMA = 0.05
NSW = 2
IBRION = 2
ISIF = 2
POTIM = 0.18
NFREE = 1
IMIX = 4
LREAL = .TRUE.
ISYM = 0
