Y139_relax_c2n_layered_lreal_true_001
1.0
4.8600000000 0.0000000000 0.0000000000
-2.4300000000 4.2088830000 0.0000000000
0.1000000000 0.0400000000 16.0000000000
C N
4 2
Direct
0.0000000000 0.0000000000 0.5000000000
0.3333333333 0.6666666667 0.5000000000
0.5000000000 0.0000000000 0.5000000000
0.0000000000 0.5000000000 0.5000000000
0.6666666667 0.3333333333 0.5000000000
0.5000000000 0.5000000000 0.5000000000
