G18_relax_layered_chalcogenide_bulk_005
1.0
4.2174000000 0.0000000000 0.0000000000
-2.1087000000 3.6523755379 0.0000000000
0.0000000000 0.0000000000 30.0960000000
Sb Te
2 3
Direct
0.0000000000 0.0000000000 0.4000000000
0.0000000000 0.0000000000 0.6000000000
0.0000000000 0.0000000000 0.3100000000
0.0000000000 0.0000000000 0.5000000000
0.0000000000 0.0000000000 0.6900000000
