mo_bcc_metal_relax
1.0
3.1500000000 0.0000000000 0.0000000000
0.0000000000 3.1500000000 0.0000000000
0.0000000000 0.0000000000 3.1500000000
Mo
2
Direct
0.0000000000 0.0000000000 0.0000000000
0.5020000000 0.4980000000 0.5000000000
