re_bulk_compressed_relax
1.0
2.6231040000 0.0000000000 0.0000000000
0.0000000000 2.6231040000 0.0000000000
0.0000000000 0.0000000000 2.6231040000
Re
4
Direct
0.0000000000 0.0000000000 0.0000000000
0.0000000000 0.5000000000 0.5000000000
0.5000000000 0.0000000000 0.5000000000
0.5000000000 0.5000000000 0.0000000000
