gan_defect_nvac_relax
1.0
4.5200000000 0.0000000000 0.0000000000
0.0000000000 4.5200000000 0.0000000000
0.0000000000 0.0000000000 4.5200000000
Ga N
4 3
Direct
0.0020000000 0.0020000000 0.0020000000
0.9980000000 0.5000000000 0.5020000000
0.5000000000 0.9980000000 0.5020000000
0.5020000000 0.5020000000 0.0020000000
0.2520000000 0.2520000000 0.2520000000
0.2480000000 0.7500000000 0.7520000000
0.7500000000 0.2480000000 0.7520000000
