znte_wurtzite_static
1.0
4.3200000000 0.0000000000 0.0000000000
-2.1600000000 3.7412297443 0.0000000000
0.0000000000 0.0000000000 7.0500000000
Zn Te
2 2
Direct
0.9990000000 0.9990000000 0.9990000000
0.6666666667 0.3343333333 0.4990000000
0.0010000000 0.0010000000 0.3760000000
0.6656666667 0.3333333333 0.8760000000
