G12_static_molecule_box_spin_holdout_004
1.0
12.0000000000 0.0000000000 0.0000000000
0.0000000000 12.0000000000 0.0000000000
0.0000000000 0.0000000000 12.0000000000
H F
1 1
Cartesian
6.0000000000 6.0000000000 5.5400000000
6.0000000000 6.0000000000 6.4600000000
