tin_defect_nvac_small_relax_02
1.0
4.2500000000 0.0000000000 0.0000000000
0.0000000000 4.2500000000 0.0000000000
0.0000000000 0.0000000000 4.2500000000
Ti N
4 3
Direct
0.0000000000 0.0000000000 0.0000000000
0.0030000000 0.4970000000 0.5000000000
0.4970000000 0.0030000000 0.5000000000
0.5000000000 0.5000000000 0.0000000000
0.5000000000 0.5000000000 0.5000000000
0.5030000000 0.9970000000 0.0000000000
0.9970000000 0.5030000000 0.0000000000
