bamoo3_perovskite_static
1.0
4.0500000000 0.0000000000 0.0000000000
0.0000000000 4.0500000000 0.0000000000
0.0000000000 0.0000000000 4.0500000000
Ba Mo O
1 1 3
Direct
0.0000000000 0.0000000000 0.0000000000
0.5000000000 0.5000000000 0.5000000000
0.4990000000 0.4990000000 0.9990000000
0.5000000000 0.0010000000 0.4990000000
0.0010000000 0.5000000000 0.4990000000
