inse_layered_chalcogenide_static
1.0
4.0000000000 0.0000000000 0.0000000000
-2.0000000000 3.4641016151 0.0000000000
0.0000000000 0.0000000000 15.5000000000
In Se
1 2
Direct
0.0000000000 0.0000000000 0.5000000000
0.3333333333 0.6666666667 0.4200000000
0.6666666667 0.3333333333 0.5800000000
