bete_zincblende_like_relax
1.0
5.6500000000 0.0000000000 0.0000000000
0.0000000000 5.6500000000 0.0000000000
0.0000000000 0.0000000000 5.6500000000
Be Te
4 4
Direct
0.0000000000 0.0000000000 0.0000000000
0.0000000000 0.5000000000 0.5000000000
0.5000000000 0.0000000000 0.5000000000
0.5000000000 0.5000000000 0.0000000000
0.2500000000 0.2500000000 0.2500000000
0.2512000000 0.7488000000 0.7500000000
0.7488000000 0.2512000000 0.7500000000
0.7500000000 0.7500000000 0.2500000000
