bese_zincblende_static
1.0
5.1500000000 0.0000000000 0.0000000000
0.0000000000 5.1500000000 0.0000000000
0.0000000000 0.0000000000 5.1500000000
Be Se
4 4
Direct
0.0000000000 0.0000000000 0.0000000000
0.0000000000 0.5000000000 0.5000000000
0.5000000000 0.0000000000 0.5000000000
0.5000000000 0.5000000000 0.0000000000
0.2500000000 0.2500000000 0.2500000000
0.2515000000 0.7485000000 0.7500000000
0.7485000000 0.2515000000 0.7500000000
0.7500000000 0.7500000000 0.2500000000
