geo2_rutile_relax
1.0
4.4000000000 0.0000000000 0.0000000000
0.0120000000 4.4000000000 0.0000000000
0.0000000000 0.0000000000 2.8600000000
Ge O
2 4
Direct
0.0000000000 0.0000000000 0.0000000000
0.5000000000 0.5000000000 0.5000000000
0.3050000000 0.3050000000 0.0000000000
0.6960000000 0.6940000000 0.0000000000
0.8040000000 0.1960000000 0.5000000000
0.1950000000 0.8050000000 0.5000000000
