cate_zincblende_relax
1.0
6.8500000000 0.0000000000 0.0000000000
0.0000000000 6.8500000000 0.0000000000
0.0000000000 0.0000000000 6.8500000000
Ca Te
4 4
Direct
0.0000000000 0.0000000000 0.0000000000
0.0000000000 0.5000000000 0.5000000000
0.5000000000 0.0000000000 0.5000000000
0.5000000000 0.5000000000 0.0000000000
0.2500000000 0.2500000000 0.2500000000
0.2512000000 0.7488000000 0.7500000000
0.7488000000 0.2512000000 0.7500000000
0.7500000000 0.7500000000 0.2500000000
