al_bcc_like_metal_static
1.0
3.2000000000 0.0000000000 0.0000000000
0.0100000000 3.2000000000 0.0000000000
0.0000000000 0.0000000000 3.2000000000
Al
2
Direct
0.9990000000 0.9990000000 0.9990000000
0.5000000000 0.5010000000 0.4990000000
