G27_relax_fast_holdout_bulk_smoke_002
1.0
2.2671000000 0.0000000000 0.0000000000
0.0000000000 2.2671000000 0.0000000000
0.0000000000 0.0000000000 2.2671000000
Be
4
Direct
0.0000000000 0.0000000000 0.0000000000
0.0000000000 0.5000000000 0.5000000000
0.5000000000 0.0000000000 0.5000000000
0.5000000000 0.5000000000 0.0000000000
