SYSTEM = zrc_rocksalt_static
GGA = PE
PREC = Normal
ENCUT = 520
EDIFF = 1e-05
ISPIN = 1
ISMEAR = 1
SIGMA = 0.15
NELM = 60
NSW = 0
IBRION = -1
ISIF = 2
IMIX = 4
