bn_wurtzite_shear_relax
1.0
2.5800000000 0.0000000000 0.0000000000
-1.2900000000 2.2343455418 0.0000000000
0.0150000000 0.0000000000 4.2500000000
B N
2 2
Direct
0.9990000000 0.9990000000 0.9990000000
0.6666666667 0.3343333333 0.4990000000
0.0010000000 0.0010000000 0.3760000000
0.6656666667 0.3333333333 0.8760000000
