inn_wurtzite_relax
1.0
3.5754000000 0.0000000000 0.0000000000
-1.7877000000 3.0963872287 0.0000000000
0.0200000000 0.0000000000 5.7000000000
In N
2 2
Direct
0.0010000000 0.0010000000 0.0010000000
0.6656666667 0.3333333333 0.5010000000
0.0000000000 0.0000000000 0.3750000000
0.6681666667 0.3318333333 0.8750000000
