Y09_static_licl_molecule_box_001
1.0
12.0000000000 0.0000000000 0.0000000000
0.0000000000 12.0000000000 0.0000000000
0.0000000000 0.0000000000 12.0000000000
Li Cl
1 1
Direct
0.4500000000 0.5000000000 0.5000000000
0.6200000000 0.5000000000 0.5000000000
