inas_wurtzite_static
1.0
4.2800000000 0.0000000000 0.0000000000
-2.1400000000 3.7065887282 0.0000000000
0.0150000000 0.0000000000 7.0000000000
In As
2 2
Direct
0.0000000000 0.0000000000 0.0000000000
0.6676666667 0.3323333333 0.5000000000
0.9990000000 0.9990000000 0.3740000000
0.6666666667 0.3343333333 0.8740000000
