Y115_static_gan_wurtzite_symbreak_fast_default_nelm_001
1.0
3.2000000000 0.0000000000 0.0000000000
-1.6000000000 2.7712810000 0.0000000000
0.0600000000 0.0200000000 5.2200000000
Ga N
2 2
Direct
0.0020000000 0.9990000000 0.0000000000
0.6646666667 0.3343333333 0.5000000000
0.0040000000 0.9980000000 0.3750000000
0.6626666667 0.3353333333 0.8750000000
