Y20_static_srtio3_perovskite_cubic_001
1.0
3.9050000000 0.0000000000 0.0000000000
0.0000000000 3.9050000000 0.0000000000
0.0000000000 0.0000000000 3.9050000000
Sr Ti O
1 1 3
Direct
0.0000000000 0.0000000000 0.0000000000
0.5000000000 0.5000000000 0.5000000000
0.5000000000 0.5000000000 0.0000000000
0.5000000000 0.0000000000 0.5000000000
0.0000000000 0.5000000000 0.5000000000
