SYSTEM = Y18_static_graphene_vacuum_mp_001
GGA = PE
PREC = Normal
ENCUT = 400
EDIFF = 1e-05
NELM = 60
ISPIN = 1
ISMEAR = 1
SIGMA = 0.15
NSW = 0
IBRION = -1
ISIF = 2
