sic_wurtzite_static
1.0
3.0800000000 0.0000000000 0.0000000000
-1.5400000000 2.6673582437 0.0000000000
0.0000000000 0.0000000000 5.0400000000
Si C
2 2
Direct
0.0000000000 0.0000000000 0.0000000000
0.6666666667 0.3333333333 0.5000000000
0.0000000000 0.0000000000 0.3750000000
0.6666666667 0.3333333333 0.8750000000
