scmno3_perovskite_like_static
1.0
3.8200000000 0.0000000000 0.0000000000
0.0000000000 3.8200000000 0.0000000000
0.0000000000 0.0000000000 3.8200000000
Sc Mn O
1 1 3
Direct
0.0000000000 0.0000000000 0.0000000000
0.5000000000 0.5000000000 0.5000000000
0.5000000000 0.5000000000 0.0000000000
0.5015000000 0.9985000000 0.5000000000
0.9985000000 0.5015000000 0.5000000000
