cds_wurtzite_relax
1.0
4.1814000000 0.0000000000 0.0000000000
-2.0907000000 3.6211986234 0.0000000000
0.0200000000 0.0000000000 6.7200000000
Cd S
2 2
Direct
0.0010000000 0.0010000000 0.0010000000
0.6656666667 0.3333333333 0.5010000000
0.0000000000 0.0000000000 0.3750000000
0.6681666667 0.3318333333 0.8750000000
