scgao3_perovskite_like_relax
1.0
3.8600000000 0.0000000000 0.0000000000
0.0100000000 3.8600000000 0.0000000000
0.0000000000 0.0000000000 3.8600000000
Sc Ga O
1 1 3
Direct
0.0000000000 0.0000000000 0.0000000000
0.5000000000 0.5000000000 0.5000000000
0.4990000000 0.4990000000 0.9990000000
0.5000000000 0.0010000000 0.4990000000
0.0010000000 0.5000000000 0.4990000000
