G20_relax_compound_defect_auto_002
1.0
11.6226000000 0.0000000000 0.0000000000
0.0000000000 11.6226000000 0.0000000000
0.0000000000 0.0000000000 5.8113000000
In P
16 17
Direct
0.0000000000 0.0000000000 0.0000000000
0.0000000000 0.2500000000 0.5000000000
0.2500000000 0.0000000000 0.5000000000
0.2500000000 0.2500000000 0.0000000000
0.0000000000 0.5000000000 0.0000000000
0.0000000000 0.7500000000 0.5000000000
0.2500000000 0.5000000000 0.5000000000
0.2500000000 0.7500000000 0.0000000000
0.5000000000 0.0000000000 0.0000000000
0.5000000000 0.2500000000 0.5000000000
0.7500000000 0.0000000000 0.5000000000
0.7500000000 0.2500000000 0.0000000000
0.5000000000 0.5000000000 0.0000000000
0.5000000000 0.7500000000 0.5000000000
0.7500000000 0.5000000000 0.5000000000
0.7500000000 0.7500000000 0.0000000000
0.1250000000 0.1250000000 0.2500000000
0.1250000000 0.3750000000 0.7500000000
0.3750000000 0.1250000000 0.7500000000
0.3750000000 0.3750000000 0.2500000000
0.1250000000 0.6250000000 0.2500000000
0.1250000000 0.8750000000 0.7500000000
0.3750000000 0.6250000000 0.7500000000
0.3750000000 0.8750000000 0.2500000000
0.6250000000 0.1250000000 0.2500000000
0.6250000000 0.3750000000 0.7500000000
0.8750000000 0.1250000000 0.7500000000
0.8750000000 0.3750000000 0.2500000000
0.6250000000 0.6250000000 0.2500000000
0.6250000000 0.8750000000 0.7500000000
0.8750000000 0.6250000000 0.7500000000
0.8750000000 0.8750000000 0.2500000000
0.1250000000 0.1250000000 0.1250000000
