tio2_defect_ovac_relax
1.0
4.5900000000 0.0000000000 0.0000000000
0.0000000000 4.5900000000 0.0000000000
0.0000000000 0.0000000000 2.9600000000
Ti O
2 3
Direct
0.0000000000 0.0000000000 0.0000000000
0.5020000000 0.4980000000 0.5000000000
0.3050000000 0.3050000000 0.0000000000
0.6970000000 0.6930000000 0.0000000000
0.8030000000 0.1970000000 0.5000000000
