al_defect_vacancy_small_relax
1.0
4.0500000000 0.0000000000 0.0000000000
0.0000000000 4.0500000000 0.0000000000
0.0000000000 0.0000000000 4.0500000000
Al
3
Direct
0.0020000000 0.0020000000 0.0020000000
0.9980000000 0.5000000000 0.5020000000
0.5000000000 0.9980000000 0.5020000000
