SYSTEM = Y100_relax_b2o3_cluster_normal_lreal_true_001
GGA = PE
PREC = Normal
ENCUT = 400
EDIFF = 2e-05
EDIFFG = -0.02
NELM = 60
ISPIN = 1
ISMEAR = 0
SIGMA = 0.05
NSW = 2
IBRION = 2
ISIF = 2
POTIM = 0.12
NFREE = 1
IMIX = 1
ALGO = Normal
LREAL = .TRUE.
ISYM = 0
