Y100_relax_b2o3_cluster_normal_lreal_true_001
1.0
14.0000000000 0.0000000000 0.0000000000
0.0000000000 14.0000000000 0.0000000000
0.0000000000 0.0000000000 14.0000000000
B O
4 6
Direct
0.4000000000 0.5000000000 0.3500000000
0.6000000000 0.5000000000 0.3500000000
0.4000000000 0.5000000000 0.6500000000
0.6000000000 0.5000000000 0.6500000000
0.5000000000 0.5000000000 0.3500000000
0.3500000000 0.5800000000 0.3500000000
0.6500000000 0.4200000000 0.3500000000
0.5000000000 0.5000000000 0.6500000000
0.3500000000 0.4200000000 0.6500000000
0.6500000000 0.5800000000 0.6500000000
