si_supercell_2x1x1_relax
1.0
10.8600000000 0.0000000000 0.0000000000
0.0000000000 5.4300000000 0.0000000000
0.0000000000 0.0000000000 5.4300000000
Si
16
Direct
0.9992000000 0.9992000000 0.9992000000
0.0000000000 0.5008000000 0.4992000000
0.2508000000 0.0000000000 0.4992000000
0.2492000000 0.4992000000 0.9992000000
0.1250000000 0.2508000000 0.2492000000
0.1258000000 0.7500000000 0.7492000000
0.3742000000 0.2492000000 0.7492000000
0.3750000000 0.7508000000 0.2492000000
0.5008000000 0.0000000000 0.9992000000
0.4992000000 0.4992000000 0.4992000000
0.7500000000 0.0008000000 0.4992000000
0.7508000000 0.5000000000 0.9992000000
0.6242000000 0.2492000000 0.2492000000
0.6250000000 0.7508000000 0.7492000000
0.8758000000 0.2500000000 0.7492000000
0.8742000000 0.7492000000 0.2492000000
