G03_static_post_transition_bulk_fd_002
1.0
4.9005000000 0.0000000000 0.0000000000
0.0000000000 4.9005000000 0.0000000000
0.0000000000 0.0000000000 4.9005000000
Pb
4
Direct
0.0000000000 0.0000000000 0.0000000000
0.0000000000 0.5000000000 0.5000000000
0.5000000000 0.0000000000 0.5000000000
0.5000000000 0.5000000000 0.0000000000
