G01_static_alkali_early_metal_bulk_mp_005
1.0
3.1185000000 0.0000000000 0.0000000000
0.0000000000 3.1185000000 0.0000000000
0.0000000000 0.0000000000 3.1185000000
Mo
2
Direct
0.0000000000 0.0000000000 0.0000000000
0.5000000000 0.5000000000 0.5000000000
