tase2_layered_static
1.0
3.4800000000 0.0000000000 0.0000000000
-1.7400000000 3.0137684052 0.0000000000
0.0000000000 0.0000000000 12.7000000000
Ta Se
1 2
Direct
0.0000000000 0.0000000000 0.5000000000
0.3323333333 0.6656666667 0.4190000000
0.6666666667 0.3343333333 0.5790000000
