zno_wurtzite_static_02
1.0
3.2500000000 0.0000000000 0.0000000000
-1.6250000000 2.8145825623 0.0000000000
0.0000000000 0.0000000000 5.2100000000
Zn O
2 2
Direct
0.0000000000 0.0000000000 0.0000000000
0.6666666667 0.3333333333 0.5000000000
0.0000000000 0.0000000000 0.3750000000
0.6666666667 0.3333333333 0.8750000000
