gec_zincblende_like_relax
1.0
4.5500000000 0.0000000000 0.0000000000
0.0000000000 4.5500000000 0.0000000000
0.0000000000 0.0000000000 4.5500000000
Ge C
4 4
Direct
0.0000000000 0.0000000000 0.0000000000
0.0000000000 0.5000000000 0.5000000000
0.5000000000 0.0000000000 0.5000000000
0.5000000000 0.5000000000 0.0000000000
0.2500000000 0.2500000000 0.2500000000
0.2512000000 0.7488000000 0.7500000000
0.7488000000 0.2512000000 0.7500000000
0.7500000000 0.7500000000 0.2500000000
