scvo3_perovskite_like_static
1.0
3.8800000000 0.0000000000 0.0000000000
0.0150000000 3.8800000000 0.0000000000
0.0000000000 0.0000000000 3.8800000000
Sc V O
1 1 3
Direct
0.0000000000 0.0000000000 0.0000000000
0.5000000000 0.5000000000 0.5000000000
0.5000000000 0.5000000000 0.0000000000
0.5000000000 0.0000000000 0.5000000000
0.0000000000 0.5000000000 0.5000000000
