G21_relax_metal_defect_auto_003
1.0
5.3658000000 0.0000000000 0.0000000000
0.0000000000 5.3658000000 0.0000000000
0.0000000000 0.0000000000 2.6829000000
Ru
16
Direct
0.0000000000 0.0000000000 0.0000000000
0.0000000000 0.2500000000 0.5000000000
0.2500000000 0.0000000000 0.5000000000
0.2500000000 0.2500000000 0.0000000000
0.0000000000 0.5000000000 0.0000000000
0.0000000000 0.7500000000 0.5000000000
0.2500000000 0.5000000000 0.5000000000
0.2500000000 0.7500000000 0.0000000000
0.5000000000 0.2500000000 0.5000000000
0.7500000000 0.0000000000 0.5000000000
0.7500000000 0.2500000000 0.0000000000
0.5000000000 0.5000000000 0.0000000000
0.5000000000 0.7500000000 0.5000000000
0.7500000000 0.5000000000 0.5000000000
0.7500000000 0.7500000000 0.0000000000
0.4687500000 0.0312500000 0.0312500000
