G05_static_holdout_semiconductor_bulk_005
1.0
5.9301000000 0.0000000000 0.0000000000
0.0000000000 5.9301000000 0.0000000000
0.0000000000 0.0000000000 5.9301000000
Sn Se
4 4
Direct
0.0000000000 0.0000000000 0.0000000000
0.0000000000 0.5000000000 0.5000000000
0.5000000000 0.0000000000 0.5000000000
0.5000000000 0.5000000000 0.0000000000
0.2500000000 0.2500000000 0.2500000000
0.2500000000 0.7500000000 0.7500000000
0.7500000000 0.2500000000 0.7500000000
0.7500000000 0.7500000000 0.2500000000
