G28_static_fast_molecule_box_holdout_003
1.0
12.0000000000 0.0000000000 0.0000000000
0.0000000000 12.0000000000 0.0000000000
0.0000000000 0.0000000000 12.0000000000
Cl
2
Cartesian
6.0000000000 6.0000000000 5.0100000000
6.0000000000 6.0000000000 6.9900000000
