ni_fcc_metal_static
1.0
3.5200000000 0.0000000000 0.0000000000
0.0000000000 3.5200000000 0.0000000000
0.0000000000 0.0000000000 3.5200000000
Ni
4
Direct
0.0020000000 0.0020000000 0.0020000000
0.9980000000 0.5000000000 0.5020000000
0.5000000000 0.9980000000 0.5020000000
0.5020000000 0.5020000000 0.0020000000
