Y06_static_sic_triclinic_low_sym_001
1.0
4.3600000000 0.1200000000 0.0500000000
0.1800000000 4.2400000000 0.2100000000
0.0700000000 0.2600000000 4.5100000000
Si C
2 2
Direct
0.0000000000 0.0000000000 0.0000000000
0.5150000000 0.5050000000 0.4920000000
0.2550000000 0.2470000000 0.2630000000
0.7550000000 0.7480000000 0.7420000000
