SYSTEM = srs_rocksalt_relax
GGA = PE
PREC = Normal
ENCUT = 420
EDIFF = 1e-05
EDIFFG = -0.05
ISPIN = 1
ISMEAR = 0
SIGMA = 0.05
NELM = 60
NSW = 1
IBRION = 2
ISIF = 2
POTIM = 0.12
IMIX = 4
