inas_zincblende_static
1.0
6.0600000000 0.0000000000 0.0000000000
0.0000000000 6.0600000000 0.0000000000
0.0000000000 0.0000000000 6.0600000000
In As
4 4
Direct
0.0000000000 0.0000000000 0.0000000000
0.0000000000 0.5000000000 0.5000000000
0.5000000000 0.0000000000 0.5000000000
0.5000000000 0.5000000000 0.0000000000
0.2515000000 0.2515000000 0.2515000000
0.2485000000 0.7500000000 0.7515000000
0.7500000000 0.2485000000 0.7515000000
0.7515000000 0.7515000000 0.2515000000
