G19_relax_magnetic_holdout_bulk_005
1.0
2.6829000000 0.0000000000 0.0000000000
0.0000000000 2.6829000000 0.0000000000
0.0000000000 0.0000000000 2.6829000000
Ru
4
Direct
0.0000000000 0.0000000000 0.0000000000
0.0000000000 0.5000000000 0.5000000000
0.5000000000 0.0000000000 0.5000000000
0.5000000000 0.5000000000 0.0000000000
