cr_fcc_like_metal_static
1.0
3.5500000000 0.0000000000 0.0000000000
0.0000000000 3.5500000000 0.0000000000
0.0000000000 0.0000000000 3.5500000000
Cr
4
Direct
0.0010000000 0.0010000000 0.0010000000
0.9990000000 0.5000000000 0.5010000000
0.5000000000 0.9990000000 0.5010000000
0.5010000000 0.5010000000 0.0010000000
