wte2_layered_static
1.0
3.5500000000 0.0000000000 0.0000000000
-1.7750000000 3.0743901834 0.0000000000
0.0000000000 0.0000000000 13.3000000000
W Te
1 2
Direct
0.0000000000 0.0000000000 0.5000000000
0.3323333333 0.6656666667 0.4190000000
0.6666666667 0.3343333333 0.5790000000
