sige_wurtzite_static
1.0
3.9200000000 0.0000000000 0.0000000000
-1.9600000000 3.3948195828 0.0000000000
0.0000000000 0.0000000000 6.4000000000
Si Ge
2 2
Direct
0.0010000000 0.0010000000 0.0010000000
0.6656666667 0.3333333333 0.5010000000
0.0000000000 0.0000000000 0.3750000000
0.6676666667 0.3323333333 0.8750000000
