SYSTEM = ir_compressed_dense_relax
GGA = PE
ENCUT = 520
EDIFF = 1e-06
EDIFFG = -0.04
ISPIN = 1
ISMEAR = 1
SIGMA = 0.2
NSW = 40
IBRION = 2
ISIF = 3
