ir_compressed_dense_relax
1.0
2.6231040000 0.0000000000 0.0000000000
0.0000000000 2.6231040000 0.0000000000
0.0000000000 0.0000000000 2.6231040000
Ir
4
Direct
0.0000000000 0.0000000000 0.0000000000
0.0210000000 0.4880000000 0.5090000000
0.4930000000 0.0180000000 0.5030000000
0.5120000000 0.5070000000 0.0140000000
