ca_fcc_metal_relax
1.0
5.5800000000 0.0000000000 0.0000000000
0.0000000000 5.5800000000 0.0000000000
0.0000000000 0.0000000000 5.5800000000
Ca
4
Direct
0.0000000000 0.0000000000 0.0000000000
0.0010000000 0.4990000000 0.5000000000
0.4990000000 0.0010000000 0.5000000000
0.5000000000 0.5000000000 0.0000000000
