SYSTEM = G20_relax_compound_defect_auto_005
GGA = PE
ENCUT = 520
EDIFF = 1e-06
EDIFFG = -0.05
ISPIN = 1
ISMEAR = 0
SIGMA = 0.05
LREAL = Auto
NELM = 10
NSW = 5
IBRION = 2
ISIF = 2
