Y16_relax_as_a7_rhombohedral_isif3_001
1.0
4.1200000000 0.0000000000 0.0000000000
2.2439128243 3.4553227399 0.0000000000
2.2439128243 1.2183452574 3.2334022439
As
2
Direct
0.2260000000 0.2260000000 0.2260000000
0.7740000000 0.7740000000 0.7740000000
