G03_static_post_transition_bulk_fd_004
1.0
4.2669000000 0.0000000000 0.0000000000
0.0000000000 4.2669000000 0.0000000000
0.0000000000 0.0000000000 4.2669000000
Sb
4
Direct
0.0000000000 0.0000000000 0.0000000000
0.0000000000 0.5000000000 0.5000000000
0.5000000000 0.0000000000 0.5000000000
0.5000000000 0.5000000000 0.0000000000
