Y11_static_c_centered_monoclinic_alo_001
1.0
5.2000000000 0.0000000000 0.0000000000
0.0000000000 3.2000000000 0.0000000000
-2.0027295542 0.0000000000 5.4432595320
Al O
2 4
Direct
0.0000000000 0.0000000000 0.0000000000
0.5000000000 0.5000000000 0.0000000000
0.2500000000 0.0000000000 0.3500000000
0.7500000000 0.0000000000 0.6500000000
0.7500000000 0.5000000000 0.3500000000
0.2500000000 0.5000000000 0.6500000000
