beo_rocksalt_relax
1.0
3.7500000000 0.0000000000 0.0000000000
0.0120000000 3.7500000000 0.0000000000
0.0000000000 0.0000000000 3.7500000000
Be O
4 4
Direct
0.9990000000 0.9990000000 0.9990000000
0.0000000000 0.5010000000 0.4990000000
0.5010000000 0.0000000000 0.4990000000
0.4990000000 0.4990000000 0.9990000000
0.5000000000 0.5000000000 0.5000000000
0.5010000000 0.9990000000 0.0000000000
0.9990000000 0.5010000000 0.0000000000
0.0000000000 0.0000000000 0.5000000000
