znse_wurtzite_relax
1.0
4.0000000000 0.0000000000 0.0000000000
-2.0000000000 3.4641016151 0.0000000000
0.0000000000 0.0000000000 6.5500000000
Zn Se
2 2
Direct
0.0010000000 0.0010000000 0.0010000000
0.6656666667 0.3333333333 0.5010000000
0.0000000000 0.0000000000 0.3750000000
0.6676666667 0.3323333333 0.8750000000
