mg_hcp_metal_static
1.0
3.2100000000 0.0000000000 0.0000000000
-1.6050000000 2.7799415461 0.0000000000
0.0100000000 0.0000000000 5.2002000000
Mg
2
Direct
0.9990000000 0.9990000000 0.9990000000
0.6666666667 0.3343333333 0.4990000000
