srmno3_perovskite_static
1.0
3.8000000000 0.0000000000 0.0000000000
0.0000000000 3.8000000000 0.0000000000
0.0000000000 0.0000000000 3.8000000000
Sr Mn O
1 1 3
Direct
0.0000000000 0.0000000000 0.0000000000
0.5000000000 0.5000000000 0.5000000000
0.5000000000 0.5000000000 0.0000000000
0.5000000000 0.0000000000 0.5000000000
0.0000000000 0.5000000000 0.5000000000
