G21_relax_metal_defect_auto_004
1.0
7.5240000000 0.0000000000 0.0000000000
0.0000000000 7.5240000000 0.0000000000
0.0000000000 0.0000000000 3.7620000000
Rh
15
Direct
0.0000000000 0.0000000000 0.0000000000
0.0000000000 0.2500000000 0.5000000000
0.2500000000 0.0000000000 0.5000000000
0.2500000000 0.2500000000 0.0000000000
0.0000000000 0.5000000000 0.0000000000
0.0000000000 0.7500000000 0.5000000000
0.2500000000 0.5000000000 0.5000000000
0.2500000000 0.7500000000 0.0000000000
0.5000000000 0.2500000000 0.5000000000
0.7500000000 0.0000000000 0.5000000000
0.7500000000 0.2500000000 0.0000000000
0.5000000000 0.5000000000 0.0000000000
0.5000000000 0.7500000000 0.5000000000
0.7500000000 0.5000000000 0.5000000000
0.7500000000 0.7500000000 0.0000000000
