Y117_static_tio2_shear_lreal_auto_imix4_001
1.0
4.5800000000 0.0000000000 0.0000000000
0.0800000000 4.5800000000 0.0000000000
0.0400000000 0.0200000000 2.9600000000
Ti O
2 4
Direct
0.0000000000 0.0000000000 0.0000000000
0.5000000000 0.5000000000 0.5000000000
0.3090000000 0.3030000000 0.0000000000
0.6910000000 0.6970000000 0.0000000000
0.1990000000 0.8030000000 0.5000000000
0.8010000000 0.1970000000 0.5000000000
