beo_wurtzite_relax
1.0
2.7270000000 0.0000000000 0.0000000000
-1.3635000000 2.3616512761 0.0000000000
0.0200000000 0.0000000000 4.3800000000
Be O
2 2
Direct
0.9990000000 0.9990000000 0.9990000000
0.6666666667 0.3343333333 0.4990000000
0.0015000000 0.0015000000 0.3765000000
0.6651666667 0.3333333333 0.8765000000
