ti_hcp_metal_relax
1.0
2.9500000000 0.0000000000 0.0000000000
-1.4750000000 2.5547749412 0.0000000000
0.0000000000 0.0000000000 4.7790000000
Ti
2
Direct
0.0000000000 0.0000000000 0.0000000000
0.6686666667 0.3313333333 0.5000000000
