G18_relax_layered_chalcogenide_bulk_001
1.0
3.1482000000 0.0000000000 0.0000000000
-1.5741000000 2.7264211762 0.0000000000
0.0000000000 0.0000000000 12.1770000000
Mo S
1 2
Direct
0.0000000000 0.0000000000 0.5000000000
0.3333333333 0.6666666667 0.5800000000
0.6666666667 0.3333333333 0.4200000000
