G21_relax_metal_defect_auto_001
1.0
6.2370000000 0.0000000000 0.0000000000
0.0000000000 6.2370000000 0.0000000000
0.0000000000 0.0000000000 3.1185000000
Mo
7
Direct
0.0000000000 0.0000000000 0.0000000000
0.2500000000 0.2500000000 0.5000000000
0.0000000000 0.5000000000 0.0000000000
0.2500000000 0.7500000000 0.5000000000
0.7500000000 0.2500000000 0.5000000000
0.5000000000 0.5000000000 0.0000000000
0.7500000000 0.7500000000 0.5000000000
