G08_static_layered_chalcogenide_bulk_003
1.0
3.6135000000 0.0000000000 0.0000000000
-1.8067500000 3.1293827966 0.0000000000
0.0000000000 0.0000000000 5.8410000000
Sn S
1 2
Direct
0.0000000000 0.0000000000 0.5000000000
0.3333333333 0.6666666667 0.5800000000
0.6666666667 0.3333333333 0.4200000000
