znse_zincblende_static_02
1.0
5.6700000000 0.0000000000 0.0000000000
0.0000000000 5.6700000000 0.0000000000
0.0000000000 0.0000000000 5.6700000000
Zn Se
4 4
Direct
0.0000000000 0.0000000000 0.0000000000
0.0000000000 0.5000000000 0.5000000000
0.5000000000 0.0000000000 0.5000000000
0.5000000000 0.5000000000 0.0000000000
0.2515000000 0.2515000000 0.2515000000
0.2485000000 0.7500000000 0.7515000000
0.7500000000 0.2485000000 0.7515000000
0.7515000000 0.7515000000 0.2515000000
