SYSTEM = ni_defect_vacancy_small_relax
GGA = PE
PREC = Normal
ENCUT = 430
EDIFF = 1e-05
EDIFFG = -0.05
ISPIN = 2
MAGMOM = 1 1 1
ISMEAR = 1
SIGMA = 0.12
NELM = 60
NSW = 1
IBRION = 2
ISIF = 2
POTIM = 0.12
IMIX = 4
