ni_defect_vacancy_small_relax
1.0
3.5200000000 0.0000000000 0.0000000000
0.0000000000 3.5200000000 0.0000000000
0.0000000000 0.0000000000 3.5200000000
Ni
3
Direct
0.9980000000 0.9980000000 0.9980000000
0.0000000000 0.5020000000 0.4980000000
0.5020000000 0.0000000000 0.4980000000
