Y33_relax_diamond_si_fcc_isif3_001
1.0
0.0000000000 2.7155000000 2.7155000000
2.7155000000 0.0300000000 2.7155000000
2.7155000000 2.7155000000 0.0000000000
Si
2
Direct
0.0000000000 0.0000000000 0.0000000000
0.2550000000 0.2500000000 0.2450000000
