G14_relax_late_transition_isif3_002
1.0
3.7620000000 0.0000000000 0.0000000000
0.0000000000 3.7620000000 0.0000000000
0.0000000000 0.0000000000 3.7620000000
Rh
4
Direct
0.0000000000 0.0000000000 0.0000000000
0.0000000000 0.5000000000 0.5000000000
0.5000000000 0.0000000000 0.5000000000
0.5000000000 0.5000000000 0.0000000000
