bahfo3_perovskite_relax
1.0
4.1700000000 0.0000000000 0.0000000000
0.0000000000 4.1700000000 0.0000000000
0.0000000000 0.0000000000 4.1700000000
Ba Hf O
1 1 3
Direct
0.0000000000 0.0000000000 0.0000000000
0.5000000000 0.5000000000 0.5000000000
0.5000000000 0.5000000000 0.0000000000
0.5000000000 0.0000000000 0.5000000000
0.0000000000 0.5000000000 0.5000000000
