zro2_rutile_static
1.0
5.0500000000 0.0000000000 0.0000000000
0.0000000000 5.0500000000 0.0000000000
0.0000000000 0.0000000000 3.2500000000
Zr O
2 4
Direct
0.0000000000 0.0000000000 0.0000000000
0.5000000000 0.5000000000 0.5000000000
0.3050000000 0.3050000000 0.0000000000
0.6960000000 0.6940000000 0.0000000000
0.8040000000 0.1960000000 0.5000000000
0.1950000000 0.8050000000 0.5000000000
