SYSTEM = gase_layered_chalcogenide_static
GGA = PE
PREC = Normal
ENCUT = 430
EDIFF = 1e-05
ISPIN = 1
ISMEAR = 0
SIGMA = 0.05
NELM = 60
NSW = 0
IBRION = -1
ISIF = 2
IMIX = 4
