SYSTEM = fe_supercell_2x2x2_static
GGA = PE
PREC = Normal
ENCUT = 430
EDIFF = 1e-05
ISPIN = 2
MAGMOM = 4 4 4 4 4 4 4 4 4 4 4 4 4 4 4 4
ISMEAR = 1
SIGMA = 0.15
NELM = 60
NSW = 0
IBRION = -1
ISIF = 2
IMIX = 4
