SYSTEM = ni_bcc_like_metal_relax
GGA = PE
PREC = Normal
ENCUT = 430
EDIFF = 1e-05
EDIFFG = -0.05
ISPIN = 2
MAGMOM = 1 1
ISMEAR = 1
SIGMA = 0.2
NELM = 60
NSW = 5
IBRION = 2
ISIF = 2
POTIM = 0.12
IMIX = 4
