ni_bcc_like_metal_relax
1.0
2.9000000000 0.0000000000 0.0000000000
0.0000000000 2.9000000000 0.0000000000
0.0000000000 0.0000000000 2.9000000000
Ni
2
Direct
0.0010000000 0.0010000000 0.0010000000
0.4990000000 0.5000000000 0.5010000000
