SYSTEM = Y136_relax_cds_slab_tetra_selective_001
GGA = PE
PREC = Normal
ENCUT = 400
EDIFF = 1e-05
EDIFFG = -0.02
NELM = 60
ISPIN = 1
ISMEAR = -5
SIGMA = 0.05
NSW = 3
IBRION = 2
ISIF = 2
POTIM = 0.18
NFREE = 1
IMIX = 4
ISYM = 0
