Y136_relax_cds_slab_tetra_selective_001
1.0
4.2000000000 0.0000000000 0.0000000000
-2.1000000000 3.6373070000 0.0000000000
0.0800000000 0.0300000000 18.0000000000
Cd S
2 2
Selective dynamics
Direct
0.0000000000 0.0000000000 0.4000000000 F F F
0.3333333333 0.6666666667 0.5500000000 T T T
0.0000000000 0.0000000000 0.4800000000 T T T
0.6666666667 0.3333333333 0.6300000000 T T T
