SYSTEM = G13_relax_alkali_early_metal_isif2_004
GGA = PE
ENCUT = 520
EDIFF = 1e-06
EDIFFG = -0.04
ISPIN = 1
ISMEAR = 1
SIGMA = 0.2
NSW = 40
IBRION = 2
ISIF = 2
