G13_relax_alkali_early_metal_isif2_004
1.0
2.8512000000 0.0000000000 0.0000000000
0.0000000000 2.8512000000 0.0000000000
0.0000000000 0.0000000000 2.8512000000
Cr
2
Direct
0.0000000000 0.0000000000 0.0000000000
0.5000000000 0.5000000000 0.5000000000
