bp_zincblende_pert2_static
1.0
4.5800000000 0.0000000000 0.0000000000
0.0000000000 4.5800000000 0.0000000000
0.0000000000 0.0000000000 4.5800000000
B P
4 4
Direct
0.0000000000 0.0000000000 0.0000000000
0.0000000000 0.5000000000 0.5000000000
0.5000000000 0.0000000000 0.5000000000
0.5000000000 0.5000000000 0.0000000000
0.2512000000 0.2512000000 0.2512000000
0.2488000000 0.7500000000 0.7512000000
0.7500000000 0.2488000000 0.7512000000
0.7512000000 0.7512000000 0.2512000000
