gase_layered_chalcogenide_relax
1.0
3.7500000000 0.0000000000 0.0000000000
-1.8750000000 3.2475952642 0.0000000000
0.0300000000 0.0000000000 16.0000000000
Ga Se
1 2
Direct
0.0000000000 0.0000000000 0.5000000000
0.3348333333 0.6681666667 0.4215000000
0.6651666667 0.3333333333 0.5815000000
