inp_wurtzite_static
1.0
4.1500000000 0.0000000000 0.0000000000
-2.0750000000 3.5940054257 0.0000000000
0.0150000000 0.0000000000 6.7800000000
In P
2 2
Direct
0.0010000000 0.0010000000 0.0010000000
0.6656666667 0.3333333333 0.5010000000
0.0000000000 0.0000000000 0.3750000000
0.6676666667 0.3323333333 0.8750000000
