Y40_relax_wurtzite_gan_isif3_001
1.0
3.1890000000 0.0000000000 0.0000000000
-1.5945000000 2.7610480000 0.0000000000
0.0000000000 0.0000000000 5.1850000000
Ga N
2 2
Direct
0.0000000000 0.0000000000 0.0050000000
0.3333333333 0.6666666667 0.4950000000
0.0000000000 0.0000000000 0.3820000000
0.3333333333 0.6666666667 0.8720000000
