SYSTEM = fes_rocksalt_relax
GGA = PE
PREC = Normal
ENCUT = 430
EDIFF = 1e-05
EDIFFG = -0.05
ISPIN = 2
MAGMOM = 4 4 4 4 0 0 0 0
ISMEAR = 1
SIGMA = 0.15
NELM = 60
NSW = 5
IBRION = 2
ISIF = 2
POTIM = 0.12
IMIX = 4
