fes_rocksalt_relax
1.0
5.0500000000 0.0000000000 0.0000000000
0.0000000000 5.0500000000 0.0000000000
0.0000000000 0.0000000000 5.0500000000
Fe S
4 4
Direct
0.9990000000 0.9990000000 0.9990000000
0.0000000000 0.5010000000 0.4990000000
0.5010000000 0.0000000000 0.4990000000
0.4990000000 0.4990000000 0.9990000000
0.5000000000 0.5000000000 0.5000000000
0.5010000000 0.9990000000 0.0000000000
0.9990000000 0.5010000000 0.0000000000
0.0000000000 0.0000000000 0.5000000000
