hfo2_fluorite_static
1.0
5.0800000000 0.0000000000 0.0000000000
0.0000000000 5.0800000000 0.0000000000
0.0000000000 0.0000000000 5.0800000000
Hf O
4 8
Direct
0.0000000000 0.0000000000 0.0000000000
0.0000000000 0.5000000000 0.5000000000
0.5000000000 0.0000000000 0.5000000000
0.5000000000 0.5000000000 0.0000000000
0.2500000000 0.2500000000 0.2500000000
0.2510000000 0.2490000000 0.7500000000
0.2490000000 0.7510000000 0.2500000000
0.7500000000 0.2500000000 0.2500000000
0.7510000000 0.7490000000 0.7500000000
0.7490000000 0.7510000000 0.2500000000
0.7500000000 0.2500000000 0.7500000000
0.2510000000 0.7490000000 0.7500000000
