Y133_relax_gan_wurtzite_isif3_symbreak_001
1.0
3.2000000000 0.0000000000 0.0000000000
-1.6000000000 2.7712810000 0.0000000000
0.0800000000 0.0300000000 5.2200000000
Ga N
2 2
Direct
0.0030000000 0.9980000000 0.0000000000
0.6636666667 0.3353333333 0.5000000000
0.0050000000 0.9970000000 0.3750000000
0.6616666667 0.3363333333 0.8750000000
